t,LE11,LE22,LE33,LE12,LE13,LE23,J,S11,S22,S33,S12,S13,S23,psiE,psiNE
0,0,0,0,0,0,0,1,0,0,0,0,0,0,0,0
0.2,0.00178536210397761,0.00995033085316809,0,0,0,0,1.01180482637992,-4.89305635561945e-08,0.000660970372148221,-0.000143161756561414,0,0,0,1.82157362175204e-06,1.45769676381327e-06
0.4,0.00349644142631384,0.0198026272961797,0,0,0,0,1.02357261233009,-4.42474210423011e-08,0.0013092223583629,-0.000275283334144239,0,0,0,7.17102826620083e-06,5.72124618921644e-06
0.6,0.00513224036871351,0.0295588022415444,0,0,0,0,1.03529979585991,-3.98514274673389e-08,0.00194511829711862,-0.00039682939927571,0,0,0,1.58816352568778e-05,1.26324295888716e-05
0.8,0.00669266785688717,0.0392207131532813,0,0,0,0,1.04698371835709,-3.57387867089016e-08,0.00256901055648133,-0.000508268930552698,0,0,0,2.77948910429936e-05,2.20409823094391e-05
1,0.00817772744864738,0.048790164169432,0,0,0,0,1.05862181921612,-3.19051562210808e-08,0.00318124520211056,-0.000610060306135279,0,0,0,4.27600888128757e-05,3.38044813675454e-05
1.2,0.00958750622148387,0.0582689081239758,0,0,0,0,1.07021163040861,-2.83415170867531e-08,0.00378216004559944,-0.000702649594360868,0,0,0,6.06339113444258e-05,4.778808414266e-05
1.4,0.0109221693074598,0.0676586484738149,0,0,0,0,1.08175077632727,-2.50412391122369e-08,0.00437208396969425,-0.000786469878740982,0,0,0,8.12800476572891e-05,6.38642118945973e-05
1.6,0.0121819568448186,0.0769610411361284,0,0,0,0,1.09323697582962,-2.1995207785978e-08,0.00495133677039188,-0.000861941015297056,0,0,0,0.000104568833092436,8.19122116647564e-05
1.8,0.0133671817436887,0.0861776962410524,0,0,0,0,1.10466804490321,-1.91953436500837e-08,0.00552022923986497,-0.000929469595066369,0,0,0,0.000130376911335718,0.000101818012324642
2,0.0144782279175582,0.0953101798043249,0,0,0,0,1.11604189962577,-1.66318074171831e-08,0.00607906336270394,-0.000989449013310052,0,0,0,0.000158586916976753,0.000123473782774075
2.2,0.0155155485339723,0.104360015324243,0,0,0,0,1.12735655895021,-1.42951242293118e-08,0.00662813256618946,-0.00104225959550909,0,0,0,0.000189087176939897,0.000146777597012842
2.4,0.0164796642432709,0.113328685307003,0,0,0,0,1.13861014726598,-1.21764598690413e-08,0.00716772199069672,-0.00108826875515077,0,0,0,0.000221771429377982,0.000171633108679108
2.6,0.0173711613161108,0.122217632724249,0,0,0,0,1.14980089665269,-1.02657014204414e-08,0.00769810876234591,-0.00112783116945771,0,0,0,0.000256538558670227,0.000197949236603233
2.8,0.0181906895721298,0.131028262406404,0,0,0,0,1.16092714867985,-8.5525326261153e-09,0.00821956225922421,-0.00116128896559344,0,0,0,0.000293292345171095,0.00022563986240508
3,0.0189389601203404,0.139761942375159,0,0,0,0,1.17198735575948,-7.02804396060172e-09,0.00873234436537488,-0.00118897191372004,0,0,0,0.00033194122857009,0.000254623540613717
3.2,0.0196167429847889,0.148420005118273,0,0,0,0,1.18298008212304,-5.68194339538655e-09,0.00923670970877426,-0.00121119762491445,0,0,0,0.000372398083901867,0.0002848232213995
3.4,0.0202248644899182,0.157003748809665,0,0,0,0,1.19390400426419,-4.50383523921752e-09,0.00973290588409408,-0.00122827175323136,0,0,0,0.000414580009093535,0.000316165986186348
3.6,0.0207642044606781,0.165514438477573,0,0,0,0,1.20475791089631,-3.48561538182982e-09,0.0102211736594608,-0.00124048820193334,0,0,0,0.000458408123218871,0.000348582796027476
3.8,0.021235693374771,0.173953307123438,0,0,0,0,1.2155407025792,-2.61714743149746e-09,0.010701747165824,-0.00124812933355285,0,0,0,0.000503807374855322,0.000382008252307725
4,0.021640309258047,0.182321556793955,0,0,0,0,1.22625139075782,-1.88962337357296e-09,0.0111748540729693,-0.00125146618470777,0,0,0,0.000550706359531759,0.000416380370017103
4.2,0.0218178576809081,0.19062035960865,0,0,0,0,1.23668970516299,-1.01694436733073e-05,0.0116430977628466,-0.00125171785072458,0,0,0,0.000598781320457158,0.000452066408821199
4.4,0.0221240368069574,0.198850858745165,0,0,0,0,1.24729211759107,-8.11563444397517e-06,0.0121014580428378,-0.00124711013084968,0,0,0,0.000648524459786452,0.000488090246167713
4.6,0.0223660536541424,0.207014169384326,0,0,0,0,1.25782020031852,-6.10385834885069e-06,0.0125530021843427,-0.00123890434002368,0,0,0,0.000699575677523343,0.000524886136585503
4.8,0.0225449432631711,0.215111379616945,0,0,0,0,1.2682732414211,-4.13932651134943e-06,0.0129979352711931,-0.00122733157595214,0,0,0,0.000751876043239514,0.000562404220075737
5,0.0225449432631711,0.22314355131421,0,0,0,0,1.27850125143256,-9.52104878695296e-06,0.0134381978709352,-0.00121361193431595,0,0,0,0.000805164485811955,0.000600967092887065
5.2,0.0227179566756155,0.231111720963387,0,0,0,0,1.28895224818056,-3.52529154403793e-07,0.0138687547439421,-0.00119495660958853,0,0,0,0.000860003196842121,0.000639418856922337
5.4,0.0227179566756155,0.2390169004705,0,0,0,0,1.29918202792802,1.68713612967285e-06,0.0142949677607834,-0.00117453115199006,0,0,0,0.000915732568650313,0.0006788149876881
5.6,0.0227179566756155,0.246860077931526,0,0,0,0,1.30941180767549,7.30006312585265e-06,0.0147144531423551,-0.00115095132083421,0,0,0,0.000972612291910198,0.000718547950949143
5.8,0.0225337305887349,0.254642218373581,0,0,0,0,1.31939849740966,4.98220711352918e-06,0.0151301650952551,-0.00112632920598087,0,0,0,0.00103025038719755,0.000759238327413383
6,0.0223589601572422,0.262364264467491,0,0,0,0,1.32939403366538,6.67026235968808e-06,0.0155393913004867,-0.00109883924628298,0,0,0,0.00108896222583807,0.000800164937678375
6.2,0.0221296014889361,0.27002713721306,0,0,0,0,1.33931292335786,8.31278054326447e-06,0.0159432751283866,-0.001069323090454,0,0,0,0.00114858459305381,0.000841523807997163
6.4,0.0216861009491133,0.27763173659828,0,0,0,0,1.34893829858519,-1.20560092378014e-09,0.0163444047909176,-0.00103996980937049,0,0,0,0.00120876020123152,0.000883934219820877
6.6,0.0213259555877704,0.285178942233662,0,0,0,0,1.3586681219748,-1.61358551607066e-09,0.0167384682280488,-0.00100728278464851,0,0,0,0.00127003255012221,0.000926183033144812
6.8,0.0209157493579193,0.29266961396282,0,0,0,0,1.36832226230869,-2.06621675932078e-09,0.0171276449148013,-0.000973028423725495,0,0,0,0.00133210336674781,0.000968768672728524
7,0.020456771498766,0.300104592450338,0,0,0,0,1.37790105124355,-2.56014657390446e-09,0.0175120794775252,-0.000937336809836277,0,0,0,0.00139493887385107,0.0010116604979541
7.2,0.0199503064110761,0.307484699747961,0,0,0,0,1.38740487559574,-3.09115321880937e-09,0.0178919116549888,-0.000900330720206595,0,0,0,0.0014585069194664,0.00105482904737245
7.4,0.0193976309655848,0.314810739840034,0,0,0,0,1.39683417271435,-3.65564338696001e-09,0.0182672763670934,-0.00086212589619873,0,0,0,0.00152277689278394,0.00109824596679928
7.6,0.0188000119922195,0.322083499169113,0,0,0,0,1.40618942594788,-4.24992431611454e-09,0.0186383037838705,-0.0008228313118724,0,0,0,0.00158771964403077,0.00114188394293821
7.8,0.0181587038973236,0.3293037471426,0,0,0,0,1.41547116014674,-4.8709179901324e-09,0.0190051193961713,-0.000782549441217444,0,0,0,0.00165330740812632,0.00118571664245125
8,0.0174749464547686,0.336472236621213,0,0,0,0,1.42467993728069,-5.51583069236666e-09,0.0193678440878601,-0.0007413765228983,0,0,0,0.00171951373207609,0.00122971865595493
8.2,0.0167499627653744,0.343589704390077,0,0,0,0,1.43381635217908,-6.1813880628675e-09,0.0197265942100396,-0.000699402822076841,0,0,0,0.00178631340596795,0.00127386544665644
8.4,0.01598495734904,0.350656871613169,0,0,0,0,1.44288102835772,-6.86500421440139e-09,0.0200814816582287,-0.000656712889454965,0,0,0,0.00185368239737368,0.00131813330351956
8.6,0.0151811144173734,0.357674444271816,0,0,0,0,1.45187461401422,-7.56507752188579e-09,0.0204326139520571,-0.000613385816315791,0,0,0,0.00192159778913814,0.00136249929844125
8.8,0.0143395963581803,0.364643113587909,0,0,0,0,1.46079777825274,-8.27852513797522e-09,0.020780094317172,-0.000569495484481597,0,0,0,0.00199003772050953,0.00140694124696581
9,0.0134615422941642,0.371563556432483,0,0,0,0,1.46965120735217,-9.0039732891789e-09,0.0211240217716738,-0.00052511081323441,0,0,0,0.00205898133120307,0.00145143767301413
9.2,0.0125480668974058,0.378436435720245,0,0,0,0,1.47843560135382,-9.73940648962834e-09,0.0214644912143106,-0.00048029599952571,0,0,0,0.00212840870867631,0.00149596777638421
9.4,0.0116002593090376,0.385262400790645,0,0,0,0,1.48715167076293,-1.04833232181939e-08,0.0218015935167701,-0.000435110753784663,0,0,0,0.00219830083818487,0.00154051140357489
9.6,0.0106191822427129,0.392042087776024,0,0,0,0,1.49580013349014,-1.12344082413632e-08,0.0221354156187968,-0.000389610529510858,0,0,0,0.0022686395556806,0.00158504902126044
9.8,0.00960587124837839,0.398776119957368,0,0,0,0,1.50438171201051,-1.19908988415601e-08,0.0224660406263705,-0.000343846746690462,0,0,0,0.00233940750339706,0.00162956169229559
10,0.00856133410031378,0.405465108108164,0,0,0,0,1.51289713069683,-1.27515288033536e-08,0.0227935479133208,-0.000297867009428909,0,0,0,0.00241058808794095,0.00167403105422871
10.2,0.00748655035132137,0.412109650826833,0,0,0,0,1.52134711339945,-1.35151873989145e-08,0.0231180132255258,-0.000251715316638413,0,0,0,0.00248216544087897,0.00171843929986281
10.4,0.00638247101989458,0.418710334858185,0,0,0,0,1.52973238123271,-1.42809014292908e-08,0.0234395087878969,-0.000205432266128795,0,0,0,0.00255412438164906,0.00176276915982611
10.6,0.00525001840009675,0.425267735404344,0,0,0,0,1.53805365056061,-1.5048386295749e-08,0.0237581034140321,-0.000159055252057262,0,0,0,0.00262645038267628,0.00180700388702008
10.8,0.00409008604859125,0.431782416425538,0,0,0,0,1.5463116312735,-1.58153810256301e-08,0.0240738626172794,-0.000112618654242487,0,0,0,0.0026991295367157,0.00185112724237629
11,0.00290353875564265,0.438254930931155,0,0,0,0,1.55450702506584,-1.65831595226595e-08,0.0243868487259923,-6.61540234452064e-05,0,0,0,0.00277214852591194,0.00189512348300327
11.2,0.00169121283897993,0.444685821261446,0,0,0,0,1.56264052424369,-1.73489623465917e-08,0.0246971209970222,-1.96902547315546e-05,0,0,0,0.00284549459321605,0.00193897735028556
11.4,0.000453916295328205,0.451075619360217,0,0,0,0,1.57071281034954,-1.81133924838373e-08,0.0250047357346443,2.67462406791288e-05,0,0,0,0.00291915551506836,0.00198267406085938
11.6,-0.000807570765980936,0.457424847038875,0,0,0,0,1.57872455326582,-1.88762480455434e-08,0.0253097464075086,7.31313749780908e-05,0,0,0,0.00299311957617641,0.00202619929744249
11.8,-0.00209249566028355,0.46373401623214,0,0,0,0,1.58667641041125,-1.96358160130944e-08,0.0256122037673199,0.000119443229133565,0,0,0,0.00306737554575868,0.00206953920104279
12,-0.00340013266860547,0.470003629245736,0,0,0,0,1.59456902597857,-2.03931744095776e-08,0.0259121559693771,0.00016566190321754,0,0,0,0.0031419126551075,0.00211268036466499
12.2,-0.0047297823552027,0.476234178996372,0,0,0,0,1.60240303057663,-2.11470159612592e-08,0.0262096486906914,0.000211769377415709,0,0,0,0.00321672057687588,0.00215560982672496
12.4,-0.0060807709605038,0.482426149244293,0,0,0,0,1.61017904080716,-2.18969245131817e-08,0.0265047252502652,0.000257749376461457,0,0,0,0.00329178940537892,0.00219831506617292
12.6,-0.00745244968165541,0.488580014818671,0,0,0,0,1.6178976590749,-2.26430449182247e-08,0.0267974267279028,0.000303587242167324,0,0,0,0.00336710963823807,0.00224078399783205
12.8,-0.0088441938891896,0.494696241836107,0,0,0,0,1.62555947355735,-2.33847232862516e-08,0.027087792081993,0.000349269812955636,0,0,0,0.00344267215919491,0.00228300496817796
13,-0.0102554023599364,0.500775287912489,0,0,0,0,1.63316505820558,-2.41225609261958e-08,0.0273758582671318,0.000394785308326043,0,0,0,0.00351846822186349,0.00232496675201255
13.2,-0.0116854963978481,0.506817602368452,0,0,0,0,1.6407149729848,-2.48555679614737e-08,0.0276616603490363,0.000440123221644842,0,0,0,0.00359448943462413,0.00236665854895482
13.4,-0.0131339190225249,0.512823626428664,0,0,0,0,1.64820976406295,-2.55841263608475e-08,0.0279452316194473,0.000485274216480177,0,0,0,0.00367072774622948,0.00240806998101171
13.6,-0.0146001340458411,0.518793793415168,0,0,0,0,1.65564996424025,-2.63072465304937e-08,0.028226603707538,0.000530230031285942,0,0,0,0.00374717543243446,0.00244919108972538
13.8,-0.0160836252235306,0.524728528934982,0,0,0,0,1.66303609331327,-2.70253415462357e-08,0.028505806690732,0.000574983387329718,0,0,0,0.00382382508321696,0.00249001233426062
14,-0.0175838953303649,0.53062825106217,0,0,0,0,1.67036865862163,-2.77387943326685e-08,0.0287828692019793,0.000619527903959744,0,0,0,0.00390066959084562,0.00253052458914549
14.2,-0.0191004652249296,0.536493370514568,0,0,0,0,1.67764815566913,-2.84460523504448e-08,0.0290578185342862,0.000663858019414322,0,0,0,0.00397770213861062,0.0025707191420671
14.4,-0.0206328730211376,0.542324290825362,0,0,0,0,1.68487506862147,-2.91483172893542e-08,0.0293306807443817,0.000707968913673163,0,0,0,0.00405491618994693,0.00261058769264055
14.6,-0.0221805486969308,0.548121408509688,0,0,0,0,1.69205008162097,-2.98403721680357e-08,0.0296014892634983,0.000751857156769739,0,0,0,0.00413230571401962,0.00265012543877539
14.8,-0.0237431791109944,0.553885113226438,0,0,0,0,1.69917346218653,-3.05314492715647e-08,0.0298702600733992,0.000795518509551176,0,0,0,0.00420986447745857,0.00268932205553782
15,-0.025320348088096,0.559615787935423,0,0,0,0,1.70624566595339,-3.12157921421308e-08,0.0301370161428536,0.000838949981653989,0,0,0,0.00428758672554549,0.00272817048133288
15.2,-0.0269116532428184,0.565313809050061,0,0,0,0,1.71326713999288,-3.18949139113678e-08,0.0304017795859503,0.000882149069051409,0,0,0,0.00436546694563856,0.00276666406058317
15.4,-0.0285167049888479,0.570979546585738,0,0,0,0,1.72023832383662,-3.2567941005493e-08,0.0306645717453927,0.000925113706022614,0,0,0,0.0044434998590269,0.00280479654039032
15.6,-0.0301351257735209,0.576613364303994,0,0,0,0,1.72715965016383,-3.32347268663935e-08,0.0309254132759746,0.000967842214937899,0,0,0,0.00452168041274842,0.00284256206882159
15.8,-0.0317665492750365,0.582215619852664,0,0,0,0,1.73403154559517,-3.3895029892192e-08,0.0311843242232141,0.00101033326161987,0,0,0,0.0046000037718375,0.00287995519247607
16,-0.0334106196526827,0.587786664902119,0,0,0,0,1.74085443143673,-3.45493386486734e-08,0.0314413240987499,0.00105258581340389,0,0,0,0.00467846531181076,0.0029169708540857
16.2,-0.0350669907877609,0.593326845277734,0,0,0,0,1.74762872447967,-3.51972701279762e-08,0.0316964319512181,0.00109459910173027,0,0,0,0.00475706061147883,0.00295360438953893
16.4,-0.0367353255779928,0.598836501088704,0,0,0,0,1.75435483774486,-3.58374356301816e-08,0.031949666433753,0.00113637258717215,0,0,0,0.00483578544595073,0.00298985152486171
16.6,-0.0384152953307456,0.60431596685333,0,0,0,0,1.76103318108959,-3.64716286026245e-08,0.0322010458689946,0.00117790592522356,0,0,0,0.0049146357797418,0.00302570837357182
16.8,-0.0401065790277238,0.609765571620894,0,0,0,0,1.76766416207265,-3.7098705689062e-08,0.032450588307085,0.00121919894012736,0,0,0,0.00499360776034809,0.00306117143222057
17,-0.041808862782341,0.615185639090233,0,0,0,0,1.77424818651328,-3.77186773897753e-08,0.0326983115829759,0.00126025159617381,0,0,0,0.00507269771173044,0.00309623757713375
17.2,-0.0435218392338073,0.62057648772511,0,0,0,0,1.78078565919015,-3.83305845882975e-08,0.0329442333680089,0.00130106397465557,0,0,0,0.00515190212812436,0.00313090405991005
17.4,-0.0452452070595136,0.625938430866495,0,0,0,0,1.78727698435828,-3.89358070056189e-08,0.0331883712194134,0.00134163625034767,0,0,0,0.00523121766786664,0.00316516850340451
17.6,-0.0469786703895419,0.631271776841858,0,0,0,0,1.79372256646548,-3.95328525540362e-08,0.0334307426233954,0.00138196867463331,0,0,0,0.00531064114756766,0.00319902889607477
17.8,-0.0487219384063565,0.636576829071551,0,0,0,0,1.80012281056291,-4.01219070918224e-08,0.0336713650376081,0.0014220615555882,0,0,0,0.00539016953617826,0.00323248358745879
18,-0.0504747248760268,0.641853886172395,0,0,0,0,1.80647812285892,-4.07027794403075e-08,0.0339102559279273,0.00146191524344425,0,0,0,0.00546979994933735,0.00326553128229165
18.2,-0.0522367477633172,0.647103242058539,0,0,0,0,1.81278891114287,-4.127611394171e-08,0.0341474328027108,0.00150153011612949,0,0,0,0.00554952964375802,0.00329817103476384
18.4,-0.0540077288199362,0.65232518603969,0,0,0,0,1.81905558527605,-4.18407082019429e-08,0.0343829132423407,0.00154090656857499,0,0,0,0.00562935601180747,0.00333040224181098
18.6,-0.0557873932752272,0.657520002916794,0,0,0,0,1.82527855751453,-4.23953988703402e-08,0.0346167149268465,0.00158004500113944,0,0,0,0.00570927657609047,0.0033622246367559
18.8,-0.0575754695780947,0.662687973075237,0,0,0,0,1.83145824275297,-4.29422660399442e-08,0.0348488556606869,0.0016189458087244,0,0,0,0.00578928898411445,0.0033936382828154
19,-0.0593716890151601,0.667829372575656,0,0,0,0,1.83759505900849,-4.34797103668338e-08,0.0350793533910633,0.00165760937675944,0,0,0,0.00586939100325643,0.00342464356465299
19.2,-0.061175785551833,0.672944473242426,0,0,0,0,1.84368942751037,-4.40081896323913e-08,0.0353082262272608,0.0016960360715336,0,0,0,0.00594958051556973,0.00345524118159457
19.4,-0.062987495562873,0.678033542749897,0,0,0,0,1.84974177300268,-4.45268233117968e-08,0.0355354924540633,0.00173422623665762,0,0,0,0.00602985551286907,0.0034854321390656
19.6,-0.0648065576728452,0.683096844706444,0,0,0,0,1.85575252385527,-4.50354073894266e-08,0.0357611705440917,0.0017721801876077,0,0,0,0.00611021409180596,0.00351521774057379
19.8,-0.0666327125872012,0.688134638736401,0,0,0,0,1.8617221122003,-4.5534076814624e-08,0.0359852791666593,0.00180989820852272,0,0,0,0.00619065444908598,0.00354459957901447
20,-0.0684657029468346,0.693147180559945,0,0,0,0,1.86765097403336,-4.60228452396627e-08,0.036207837193991,0.00184738054995752,0,0,0,0.00627117487678286,0.00357357952766679
20.2,-0.070305273203986,0.698134722070984,0,0,0,0,1.87353954928187,-4.65009636404362e-08,0.0364288637049185,0.00188462742754808,0,0,0,0.0063517737577512,0.00360215973088917
20.4,-0.0721511695550821,0.703097511413114,0,0,0,0,1.87938828177306,-4.69685576039852e-08,0.0366483779870097,0.00192163902011436,0,0,0,0.00643244956110201,0.00363034259493799
20.6,-0.0740031398529695,0.708035793053696,0,0,0,0,1.88519761924518,-4.74254738969809e-08,0.0368663995355759,0.00195841546999147,0,0,0,0.00651320083782404,0.00365813077810145
20.8,-0.0758609335605466,0.712949807856125,0,0,0,0,1.89096801328555,-4.78715419492681e-08,0.0370829480510929,0.00199495688315329,0,0,0,0.00659402621648417,0.00368552718085559
21,-0.0777243017122037,0.717839793150317,0,0,0,0,1.89669991925743,-4.83061053865863e-08,0.037298043434458,0.0020312633302784,0,0,0,0.00667492439904238,0.00371253493571523
21.2,-0.0795929969214584,0.72270598280149,0,0,0,0,1.90239379614227,-4.87294891417245e-08,0.0375117057811237,0.00206733484716562,0,0,0,0.00675589415674816,0.00373915739724685
21.4,-0.081466773358109,0.727548607277278,0,0,0,0,1.9080501064419,-4.91413420303233e-08,0.0377239553725285,0.00210317143735541,0,0,0,0.00683693432618665,0.0037653981314243
21.6,-0.083345386778915,0.732367893713227,0,0,0,0,1.91366931598102,-4.9541584636742e-08,0.0379348126669043,0.00213877307360774,0,0,0,0.00691804380540112,0.00379126090530718
21.8,-0.0852285945569781,0.73716406597672,0,0,0,0,1.91925189371315,-4.99303730722156e-08,0.0381442982883826,0.00217413970024907,0,0,0,0.00699922155014184,0.00381674967647066
22,-0.0871161557096696,0.741937344729377,0,0,0,0,1.92479831153044,-5.03071396727728e-08,0.0383524330145428,0.00220927123632189,0,0,0,0.00708046657023785,0.00384186858221799
22.2,-0.0890078309686979,0.746687947487975,0,0,0,0,1.93030904399321,-5.06717546429336e-08,0.0385592377635882,0.0022441675777085,0,0,0,0.00716177792606319,0.00386662192911827
22.4,-0.0909033828433849,0.751416088683921,0,0,0,0,1.93578456807237,-5.10245828384132e-08,0.0387647335801682,0.00227882860006868,0,0,0,0.00724315472513443,0.0038910141823505
22.6,-0.0928025756687861,0.756121979721334,0,0,0,0,1.94122536292132,-5.13649327116977e-08,0.0389689416197925,0.00231325416286942,0,0,0,0.00732459611883954,0.00391504995479079
22.8,-0.0947051757141278,0.76080582903376,0,0,0,0,1.94663190953097,-5.16931230615941e-08,0.039171883133776,0.00234744411137521,0,0,0,0.0074061012992574,0.0039387339967594
23,-0.096610951248662,0.765467842139572,0,0,0,0,1.95200469046645,-5.20092334407862e-08,0.0393735794524245,0.00238139828066757,0,0,0,0.00748766949612645,0.00396207118527032
23.2,-0.0985196726288878,0.770108221696074,0,0,0,0,1.95734418956222,-5.23129656607169e-08,0.0395740519681138,0.00241511649905074,0,0,0,0.00756929997392475,0.003985066513562
23.4,-0.100431112402793,0.774727167552368,0,0,0,0,1.96265089158301,-5.26044025249417e-08,0.0397733221183046,0.0024485985909289,0,0,0,0.00765099202906802,0.00400772508089874
23.6,-0.10234504538368,0.779324876800998,0,0,0,0,1.96792528194375,-5.28824659791483e-08,0.0399714113674666,0.00248184438105212,0,0,0,0.00773274498724173,0.00403005208211164
23.8,-0.10426124881344,0.78390154382841,0,0,0,0,1.97316784625274,-5.31494106052743e-08,0.0401683411909741,0.00251485369508169,0,0,0,0.00781455820083184,0.00405205279834866
24,-0.10617950235481,0.78845736036427,0,0,0,0,1.97837907019055,-5.34034246962856e-08,0.0403641330546979,0.0025476263672843,0,0,0,0.00789643104652204,0.00407373258593842
24.2,-0.108099588288497,0.792992515529661,0,0,0,0,1.98355943898497,-5.36453551702037e-08,0.0405588083996228,0.00258016223961333,0,0,0,0.00797836292296048,0.00409509686790667
24.4,-0.110021291542057,0.797507195884188,0,0,0,0,1.9887094372169,-5.38738311687409e-08,0.0407523886224394,0.00261246116772496,0,0,0,0.00806035324858334,0.00411615112369401
24.6,-0.111944399864463,0.802001585472028,0,0,0,0,1.99382954833714,-5.40905692701654e-08,0.0409448950599452,0.00264452302069109,0,0,0,0.00814240145953679,0.00413690088088374
24.8,-0.113868703850965,0.806475865866949,0,0,0,0,1.99892025447962,-5.4295403541238e-08,0.0411363489700174,0.00267634768686227,0,0,0,0.00822450700773085,0.00415735170538378
25,-0.115793997062856,0.810930216216329,0,0,0,0,2.00398203608595,-5.44880728071961e-08,0.0413267715153203,0.00270793507548209,0,0,0,0.00830666935899717,0.00417750919305313
25.2,-0.117720076123769,0.815364813284195,0,0,0,0,2.00901537157601,-5.46685880002673e-08,0.0415161837468888,0.00273928511902306,0,0,0,0.00838888799136457,0.00419737896135811
25.4,-0.119646740789774,0.819779831493312,0,0,0,0,2.01402073707079,-5.48360052036317e-08,0.0417046065875683,0.00277039777636185,0,0,0,0.00847116239344202,0.00421696664103501
25.6,-0.121573794097969,0.824175442966349,0,0,0,0,2.01899860595706,-5.49929860052534e-08,0.0418920608180489,0.00280127303221359,0,0,0,0.00855349206292687,0.00423627786907351
25.8,-0.12350104231926,0.828551817566148,0,0,0,0,2.02394944884635,-5.51368900935517e-08,0.0420785670585248,0.00283191090476608,0,0,0,0.00863587650517648,0.00425531827962188
26,-0.125428295189991,0.832909122935104,0,0,0,0,2.02887373297205,-5.52708174002964e-08,0.0422641457582083,0.00286231144076311,0,0,0,0.00871831523194996,0.00427409349874102
26.2,-0.127355365807943,0.837247524533702,0,0,0,0,2.03377192226459,-5.53913334176009e-08,0.0424488171769197,0.0028924747249388,0,0,0,0.00880080776015543,0.00429260913533653
26.4,-0.12928207087415,0.841567185678219,0,0,0,0,2.03864447672716,-5.55009785647292e-08,0.042632601376405,0.00292240087382694,0,0,0,0.00888335361080962,0.00431087077682049
26.6,-0.13120823063101,0.845868267577609,0,0,0,0,2.04349185242726,-5.55996914116536e-08,0.0428155182045761,0.00295209004257507,0,0,0,0.00896595230798483,0.00432888398134666
26.8,-0.133133668963616,0.85015092936961,0,0,0,0,2.04831450115816,-5.56881600641962e-08,0.0429975872848148,0.00298154242414223,0,0,0,0.009048603377907,0.00434665427249574
27,-0.135058213407833,0.854415328156068,0,0,0,0,2.05311287029117,-5.57649519113829e-08,0.0431788280036794,0.00301075825224332,0,0,0,0.00913130634809727,0.00436418713317656
27.2,-0.136981695246652,0.858661619037519,0,0,0,0,2.05788740244834,-5.58303330094878e-08,0.0433592595018006,0.00303973779991653,0,0,0,0.00921406074664963,0.00438148800105135
27.4,-0.138903949546271,0.86288995514704,0,0,0,0,2.06263853529892,-5.58862236696434e-08,0.0435389006640759,0.00306848138035862,0,0,0,0.00929686610156297,0.00439856226359757
27.6,-0.140824815124317,0.867100487683383,0,0,0,0,2.06736670149742,-5.59316838989743e-08,0.0437177701089019,0.00309698935045897,0,0,0,0.00937972194009544,0.00441541525268279
27.8,-0.142744134621919,0.871293365943419,0,0,0,0,2.07207232840945,-5.59662349762513e-08,0.0438958861810532,0.00312526210922013,0,0,0,0.00946262778826623,0.00443205224086635
28,-0.144661754547314,0.8754687373539,0,0,0,0,2.07675583789688,-5.59915746406459e-08,0.0440732669446952,0.00315330009703651,0,0,0,0.0095455831704188,0.00444847843772892
28.2,-0.146577525231858,0.879626747502564,0,0,0,0,2.08141764628617,-5.60073816838202e-08,0.0442499301748794,0.00318110379861355,0,0,0,0.00962858760877308,0.00446469898544042
28.4,-0.14849130085398,0.883767540168595,0,0,0,0,2.08605816419825,-5.60123872943297e-08,0.0444258933517174,0.00320867374240526,0,0,0,0.00971164062309569,0.00448071895557787
28.6,-0.15040293951561,0.887891257352457,0,0,0,0,2.09067779627008,-5.60096521592945e-08,0.0446011736568489,0.00323601049720888,0,0,0,0.00979474173049718,0.00449654334700155
28.8,-0.152312303115123,0.891998039305111,0,0,0,0,2.09527694130232,-5.59974943636909e-08,0.0447757879651548,0.0032631146778593,0,0,0,0.00987789044507159,0.00451217708141799
29,-0.154219257428613,0.896088024556636,0,0,0,0,2.09985599197507,-5.59758436442792e-08,0.0449497528429631,0.00328998694090724,0,0,0,0.00996108627780756,0.0045276250020119
29.2,-0.15612367209237,0.900161349944271,0,0,0,0,2.10441533477108,-5.5945818887293e-08,0.0451230845443466,0.00331662798453202,0,0,0,0.0100443287364535,0.00454289187112364
29.4,-0.158025420555036,0.904218150639886,0,0,0,0,2.10895534996519,-5.59074294498307e-08,0.0452957990073267,0.00334303854957614,0,0,0,0.0101276173253877,0.00455798236784548
29.6,-0.159924380082972,0.908258560176891,0,0,0,0,2.11347641150441,-5.58614629657395e-08,0.0454679118522646,0.0033692194177819,0,0,0,0.0102109515455995,0.00457290108662426
29.8,-0.161820431696489,0.912282710476616,0,0,0,0,2.11797888703597,-5.58066468071827e-08,0.0456394383790376,0.0033951714130066,0,0,0,0.010294330894618,0.00458765253524951
30,-0.16371346022312,0.916290731874155,0,0,0,0,2.12246313769028,-5.57456638801412e-08,0.045810393568161,0.00342089539659875,0,0,0,0.0103777548666492,0.00460224113468118
30.2,-0.165603354131286,0.920282753143693,0,0,0,0,2.12692951833128,-5.56753646276109e-08,0.045980792076382,0.00344639227299255,0,0,0,0.0104612229524239,0.00461667121622152
30.4,-0.167490005662598,0.924258901523332,0,0,0,0,2.13137837717607,-5.55991453154991e-08,0.0461506482413054,0.00347166298078247,0,0,0,0.0105447346395314,0.00463094702293669
30.6,-0.169373310628755,0.928219302739429,0,0,0,0,2.13581005612907,-5.55149496477003e-08,0.046319976077122,0.0034967084996485,0,0,0,0.0106282894122619,0.00464507270683444
30.8,-0.171253168485599,0.932164081030445,0,0,0,0,2.14022489052966,-5.54238640884663e-08,0.0464887892787242,0.00352152984377081,0,0,0,0.010711886751917,0.00465905232998463
31,-0.173129482256023,0.936093359170335,0,0,0,0,2.14462320922356,-5.53278385259648e-08,0.0466571012220868,0.00354612806229691,0,0,0,0.010795526136906,0.00467288986384317
31.2,-0.175002158404593,0.940007258491471,0,0,0,0,2.14900533474118,-5.52239803192078e-08,0.0468249249636844,0.00357050424204403,0,0,0,0.01087920704276,0.00468658918810628
31.4,-0.176871106923084,0.943905898907129,0,0,0,0,2.1533715830265,-5.51146804098068e-08,0.0469922732464869,0.00359465949973591,0,0,0,0.0109629289425585,0.00470015409263568
31.6,-0.178736241160574,0.947789398933526,0,0,0,0,2.15772226371604,-5.49989643168491e-08,0.0471591584989788,0.00361859498657086,0,0,0,0.0110466913068996,0.004713588276084
31.8,-0.180597477827332,0.951657875711446,0,0,0,0,2.16205768004767,-5.48768866945326e-08,0.0473255928396087,0.00364231188416903,0,0,0,0.0111304936042101,0.00472689534705553
32,-0.182454736951736,0.955511445027436,0,0,0,0,2.16637812887232,-5.47506007579635e-08,0.0474915880802644,0.00366581140267633,0,0,0,0.0112143353009899,0.00474007882479054
32.2,-0.184307941738987,0.959350221334602,0,0,0,0,2.17068390088089,-5.46181930100031e-08,0.0476571557271709,0.00368909478365797,0,0,0,0.0112982158618511,0.00475314213863403
32.4,-0.186157018616997,0.963174317773006,0,0,0,0,2.17497528042888,-5.44816340999899e-08,0.0478223069876364,0.00371216329360856,0,0,0,0.0113821347499698,0.00476608863022512
32.6,-0.188001897083412,0.966983846189673,0,0,0,0,2.17925254579417,-5.43399265098832e-08,0.0479870527711742,0.00373501822728477,0,0,0,0.0114660914271122,0.00477892155305196
32.8,-0.189842509705154,0.970778917158225,0,0,0,0,2.18351596910659,-5.41937730004494e-08,0.0481514036954163,0.00375766090337171,0,0,0,0.0115500853540052,0.00479164407423418
33,-0.191678792004856,0.974559639998131,0,0,0,0,2.18776581652591,-5.40418228882344e-08,0.048315370088892,0.00378009266575716,0,0,0,0.0116341159904506,0.00480425927483886
33.2,-0.193510682476636,0.978326122793608,0,0,0,0,2.19200234814005,-5.3886700192296e-08,0.0484789619978516,0.00380231487827137,0,0,0,0.011718182795758,0.00481677015207343
33.4,-0.195338122429165,0.982078472412158,0,0,0,0,2.19622581824305,-5.37280787325789e-08,0.0486421891881266,0.00382432892809229,0,0,0,0.0118022852287518,0.00482917961917059
33.6,-0.197161055942199,0.985816794522765,0,0,0,0,2.20043647536802,-5.35643066637559e-08,0.0488050611504972,0.00384613622345093,0,0,0,0.0118864227480509,0.00484149050690503
33.8,-0.198979429851671,0.989541193613748,0,0,0,0,2.20463456225911,-5.33962653363751e-08,0.0489675871071203,0.00386773818982937,0,0,0,0.0119705948124355,0.00485370556559475
34,-0.200793193673759,0.993251773010283,0,0,0,0,2.20882031597919,-5.32266091167466e-08,0.0491297760161904,0.00388913626926603,0,0,0,0.0120548008810583,0.00486582746628822
34.2,-0.202602299447971,0.996948634891609,0,0,0,0,2.21299396819949,-5.3052837255263e-08,0.0492916365742203,0.00391033192384652,0,0,0,0.0121390404134112,0.00487785880086146
34.4,-0.204406701783412,1.00063188030791,0,0,0,0,2.21715574504315,-5.28758079647307e-08,0.0494531772245972,0.0039313266288035,0,0,0,0.0122233128698588,0.00488980208501081
34.6,-0.206206357747259,1.00430160919687,0,0,0,0,2.22130586727886,-5.26962466822212e-08,0.0496144061613776,0.00395212187372005,0,0,0,0.0123076177117295,0.00490165975905685
34.8,-0.20800122678182,1.00795792039998,0,0,0,0,2.22544455045412,-5.25133854491211e-08,0.0497753313339755,0.00397271916232773,0,0,0,0.0123919544014715,0.00491343418917032
35,-0.209791270666599,1.01160091167848,0,0,0,0,2.22957200493083,-5.23270261357234e-08,0.0499359604532859,0.00399312001000642,0,0,0,0.0124763224029383,0.00492512766926257
35.2,-0.211576420762546,1.01523067972906,0,0,0,0,2.23368850900369,-5.21375455586615e-08,0.0500963043863272,0.00401332575612021,0,0,0,0.0125607210752381,0.00493674377245637
35.4,-0.21335667514216,1.01884732019925,0,0,0,0,2.23779419216822,-5.19460238886105e-08,0.0502563670887076,0.00403333812581463,0,0,0,0.0126451499846371,0.00494828334304604
35.6,-0.215132002174488,1.02245092770255,0,0,0,0,2.24188924990418,-5.17533835231454e-08,0.0504161555908191,0.00405315866336162,0,0,0,0.0127296086000731,0.00495974846871852
35.8,-0.216902372272229,1.02604159583327,0,0,0,0,2.24597387298377,-5.15580719714914e-08,0.050575676704562,0.00407278892257817,0,0,0,0.0128140963925145,0.00497114117051836
36,-0.218667757899564,1.02961941718116,0,0,0,0,2.25004824741413,-5.13614171158971e-08,0.0507349370308064,0.00409223046219443,0,0,0,0.0128986128353688,0.00498246340539609
36.2,-0.220428133437987,1.03318448334565,0,0,0,0,2.25411255469999,-5.11619591692103e-08,0.0508939429623302,0.00411148484877071,0,0,0,0.0129831574043994,0.00499371706671328
36.4,-0.222183475203483,1.03673688495002,0,0,0,0,2.25816697176826,-5.09614128639535e-08,0.051052700691473,0.00413055365169597,0,0,0,0.0130677295781555,0.00500490398690037
36.6,-0.223933761298205,1.04027671165515,0,0,0,0,2.2622116712669,-5.07577394837089e-08,0.0512112162124709,0.00414943844703487,0,0,0,0.0131523288378064,0.00501602593771786
36.8,-0.225678971668704,1.04380405217311,0,0,0,0,2.26624682139961,-5.05541705268786e-08,0.0513694953302862,0.00416814081047117,0,0,0,0.0132369546677129,0.00502708463346776
37,-0.227419087920423,1.04731899428056,0,0,0,0,2.27027258631275,-5.03492165598862e-08,0.0515275436615698,0.00418666232332385,0,0,0,0.013321606555092,0.00503808173066613
37.2,-0.22915409334193,1.05082162483176,0,0,0,0,2.27428912601002,-5.01428934866766e-08,0.0516853666422285,0.00420500456746442,0,0,0,0.0134062839904446,0.00504901883071118
37.4,-0.230883972820828,1.05431202977153,0,0,0,0,2.27829659651359,-4.99344439824911e-08,0.0518429695314294,0.00422316912610049,0,0,0,0.0134909864675691,0.00505989748095812
37.6,-0.232608712837039,1.05779029414785,0,0,0,0,2.2822951498509,-4.97260197046545e-08,0.0520003574179999,0.0042411575804803,0,0,0,0.0135757134838687,0.00507071917688357
37.8,-0.234328301328279,1.06125650212434,0,0,0,0,2.28628493433408,-4.95162703895158e-08,0.0521575352225724,0.00425897151359063,0,0,0,0.0136604645401358,0.00508148536235713
38,-0.236042727702052,1.06471073699243,0,0,0,0,2.29026609450717,-4.93053119825226e-08,0.0523145077043644,0.00427661250603215,0,0,0,0.0137452391409086,0.00509219743200571
38.2,-0.237751982772847,1.0681530811834,0,0,0,0,2.29423877126495,-4.90937583988438e-08,0.052471279465424,0.00429408213601504,0,0,0,0.0138300367945224,0.00510285673245438
38.4,-0.239456058700708,1.07158361628019,0,0,0,0,2.29820310197016,-4.88817611249415e-08,0.0526278549547908,0.0043113819793817,0,0,0,0.0139148570131502,0.00511346456354606
38.6,-0.241154948941487,1.07500242302898,0,0,0,0,2.3021592205456,-4.86688723141948e-08,0.0527842384729135,0.00432851360908863,0,0,0,0.0139996993128777,0.0051240221796904
38.8,-0.242848648219638,1.07840958135059,0,0,0,0,2.30610725751542,-4.84556013785609e-08,0.0529404341766908,0.004345478593537,0,0,0,0.0140845632138689,0.00513453079150335
39,-0.244537152456844,1.08180517035173,0,0,0,0,2.31004734014941,-4.82413899625944e-08,0.0530964460829252,0.00436227849741784,0,0,0,0.0141694482403254,0.00514499156675573
39.2,-0.24622045876065,1.08518926833597,0,0,0,0,2.31397959247006,-4.80272459232878e-08,0.0532522780736407,0.00437891487934213,0,0,0,0.0142543539207032,0.00515540563216231
39.4,-0.247898565340046,1.08856195281461,0,0,0,0,2.3179041354295,-4.78124951297509e-08,0.0534079338988407,0.00439538929359237,0,0,0,0.0143392797875879,0.00516577407405109
39.6,-0.249571471509628,1.09192330051731,0,0,0,0,2.32182108688277,-4.75984750572533e-08,0.0535634171820935,0.00441170328705981,0,0,0,0.0144242253779646,0.00517609794029632
39.8,-0.251239177584992,1.0952733874026,0,0,0,0,2.32573056181409,-4.73834858155664e-08,0.0537187314223426,0.00442785840230911,0,0,0,0.0145091902329704,0.0051863782405995
40,-0.252901684909844,1.09861228866811,0,0,0,0,2.32963267225884,-4.71681409278113e-08,0.0538738800000123,0.00444385617340123,0,0,0,0.0145941738982559,0.00519661594867625
40.2,-0.252871561156399,1.0952733874026,0,0,0,0,2.32193717442743,-6.17329243279841e-11,0.053523174048065,0.00445699048405518,0,0,0,0.0145171795188167,0.00510968929522251
40.4,-0.252803814371284,1.09192330051731,0,0,0,0,2.3143282812487,-1.00565229754768e-10,0.0531769204965815,0.00446951801955184,0,0,0,0.0144399651723097,0.00502454726052663
40.6,-0.252699329832102,1.08856195281461,0,0,0,0,2.30680309162938,-2.16684871434669e-10,0.0528348872633697,0.00448149655217967,0,0,0,0.0143625329870224,0.00494110138795652
40.8,-0.252559485965881,1.08518926833597,0,0,0,0,2.29935760642793,-3.69076887107855e-10,0.0524968757038714,0.00449294928313454,0,0,0,0.0142848878753729,0.00485927708772393
41,-0.252385574801001,1.08180517035173,0,0,0,0,2.29198807406338,-5.52760094640892e-10,0.0521626995734088,0.00450389790777109,0,0,0,0.0142070346446027,0.00477900448910038
41.2,-0.252178808581108,1.07840958135059,0,0,0,0,2.28469097104607,-7.63694905925316e-10,0.0518321839977253,0.00451436275605027,0,0,0,0.0141289779948475,0.00470021806241941
41.4,-0.251940326145537,1.07500242302898,0,0,0,0,2.27746298348173,-9.98027032544924e-10,0.0515051645555559,0.00452436289797963,0,0,0,0.0140507225201772,0.00462285628310407
41.6,-0.251671198737576,1.07158361628019,0,0,0,0,2.27030099028503,-1.25275079199128e-09,0.0511814864483787,0.00453391623827365,0,0,0,0.0139722727103948,0.00454686132767664
41.8,-0.251372435266442,1.0681530811834,0,0,0,0,2.26320204799717,-1.52475717468681e-09,0.0508610037465323,0.0045430396033809,0,0,0,0.0138936329532545,0.00447217879774926
42,-0.251044987122897,1.06471073699243,0,0,0,0,2.25616337693877,-1.81163268067608e-09,0.0505435787046687,0.00455174881949835,0,0,0,0.0138148075371988,0.00439875746955358
42.2,-0.250689752557814,1.06125650212434,0,0,0,0,2.24918234864145,-2.11105977837578e-09,0.0502290811379254,0.00456005878454822,0,0,0,0.0137358006543133,0.00432654906579226
42.4,-0.250307580697834,1.05779029414785,0,0,0,0,2.24225647435833,-2.42116746096421e-09,0.0499173878532897,0.00456798353323431,0,0,0,0.0136566164035726,0.00425550804787641
42.6,-0.249899275215477,1.05431202977153,0,0,0,0,2.23538339458654,-2.74018556109534e-09,0.0496083821298148,0.00457553629693633,0,0,0,0.0135772587942046,0.004185591426196
42.8,-0.249465597703336,1.05082162483176,0,0,0,0,2.22856086946511,-3.06659121360187e-09,0.0493019532431296,0.00458272955820123,0,0,0,0.0134977317491973,0.00411675858679866
43,-0.249007270773465,1.04731899428056,0,0,0,0,2.22178676997938,-3.3990420027219e-09,0.0489979960295264,0.00458957510081109,0,0,0,0.0134180391088583,0.00404897113273728
43.2,-0.248524980910131,1.04380405217311,0,0,0,0,2.21505906988906,-3.7362017750453e-09,0.0486964104857359,0.00459608405580011,0,0,0,0.0133381846343988,0.0039821927386697
43.4,-0.248019381110545,1.04027671165515,0,0,0,0,2.20837583828582,-4.07726607337677e-09,0.0483971014012005,0.00460226694328177,0,0,0,0.0132581720115658,0.00391638901756476
43.6,-0.247491093301838,1.03673688495002,0,0,0,0,2.20173523279063,-4.42070753614576e-09,0.0480999780188154,0.00460813371208914,0,0,0,0.0131780048541342,0.00385152739797421
43.8,-0.246940710620147,1.03318448334565,0,0,0,0,2.19513549318712,-4.76626630524501e-09,0.0478049537232415,0.00461369377421209,0,0,0,0.0130976867075767,0.00378757701167124
44,-0.246368799470189,1.02961941718116,0,0,0,0,2.18857493565892,-5.11279902790096e-09,0.04751194575159,0.00461895603920933,0,0,0,0.013017221052399,0.00372450858955515
44.2,-0.245775901480744,1.02604159583327,0,0,0,0,2.18205194736503,-5.45949944280588e-09,0.0472208749270522,0.00462392894387757,0,0,0,0.0129366113076355,0.00366229436622328
44.4,-0.245162535313867,1.02245092770255,0,0,0,0,2.175564981437,-5.80630669586024e-09,0.0469316654119484,0.00462862048018495,0,0,0,0.0128558608342129,0.0036009079918036
44.6,-0.244529198316822,1.01884732019925,0,0,0,0,2.16911255241189,-6.15182245769508e-09,0.0466442444778569,0.0046330382227512,0,0,0,0.0127749729380595,0.0035403244501434
44.8,-0.243876368130575,1.01523067972906,0,0,0,0,2.16269323184522,-6.49632705268521e-09,0.04635854229394,0.00463718935111842,0,0,0,0.0126939508734724,0.00348051998394737
45,-0.243204504113045,1.01160091167848,0,0,0,0,2.15630564440501,-6.83872344517389e-09,0.0460744917280723,0.00464108067425483,0,0,0,0.0126127978459747,0.00342147202459949
45.2,-0.242514048743412,1.00795792039998,0,0,0,0,2.14994846407921,-7.17899652918907e-09,0.0457920281635949,0.00464471864991588,0,0,0,0.0125315170154524,0.00336315912798443
45.4,-0.241805428884205,1.00430160919687,0,0,0,0,2.14362041075778,-7.51655855960043e-09,0.0455110893271508,0.00464810940524413,0,0,0,0.0124501114989102,0.0033055609143948
45.6,-0.241079056994243,1.00063188030791,0,0,0,0,2.13732024698253,-7.85078062975897e-09,0.0452316151287762,0.00465125875465807,0,0,0,0.0123685843732744,0.00324865801310031
45.8,-0.240335332277134,0.996948634891609,0,0,0,0,2.13104677489357,-8.18209730871211e-09,0.0449535475127241,0.00465417221620507,0,0,0,0.0122869386781336,0.00319243201096975
46,-0.239574641710865,0.993251773010283,0,0,0,0,2.12479883348393,-8.50935108834272e-09,0.0446768303167268,0.00465685502922951,0,0,0,0.0122051774181194,0.0031368654041904
46.2,-0.238797361087833,0.989541193613748,0,0,0,0,2.11857529588174,-8.83233688617202e-09,0.0444014091419545,0.00465931216775551,0,0,0,0.0121233035655397,0.00308194155411653
46.4,-0.238003869583037,0.985816794522765,0,0,0,0,2.11237503810487,-9.15086581856905e-09,0.0441272300549205,0.00466154826722508,0,0,0,0.0120413201292232,0.00302764415247232
46.6,-0.237194508848672,0.982078472412158,0,0,0,0,2.10619702520338,-9.46504901538914e-09,0.0438542430927624,0.00466356789770692,0,0,0,0.0119592299522222,0.00297395870209933
46.8,-0.236369626620627,0.978326122793608,0,0,0,0,2.10004021841669,-9.77463693319081e-09,0.0435823984331392,0.00466537532125358,0,0,0,0.0118770359237283,0.00292087091930722
47,-0.235529562917073,0.974559639998131,0,0,0,0,2.09390360415973,-1.00789526932821e-08,0.0433116475700628,0.00466697458733547,0,0,0,0.0117947409093227,0.00286836723607381
47.2,-0.234674650811646,0.970778917158225,0,0,0,0,2.08778619207662,-1.0377898713998e-08,0.0430419432188366,0.00466836954354281,0,0,0,0.0117123477530037,0.00281643476890553
47.4,-0.233805217146081,0.966983846189673,0,0,0,0,2.08168701325538,-1.06714740481795e-08,0.0427732392261734,0.00466956384668156,0,0,0,0.011629859279015,0.00276506128956699
47.6,-0.232921583203632,0.963174317773006,0,0,0,0,2.07560511855614,-1.09591501880335e-08,0.0425054904855535,0.00467056097346908,0,0,0,0.0115472782935691,0.00271423519771882
47.8,-0.232024065369322,0.959350221334602,0,0,0,0,2.06953957699692,-1.12407674036918e-08,0.0422386528579838,0.00467136422986835,0,0,0,0.0114646075865804,0.00266394549554583
48,-0.231112975745455,0.955511445027436,0,0,0,0,2.06348947426085,-1.15165898414982e-08,0.0419726830971031,0.00467197676056753,0,0,0,0.0113818499332487,0.00261418176391909
48.2,-0.230188622715842,0.951657875711446,0,0,0,0,2.05745391133627,-1.17859548717791e-08,0.0417075387781894,0.00467240155897412,0,0,0,0.0112990080954565,0.00256493413990221
48.4,-0.229251311523561,0.947789398933526,0,0,0,0,2.05143200315388,-1.20489235082288e-08,0.0414431782321549,0.00467264147509786,0,0,0,0.0112160848232816,0.00251619329608227
48.6,-0.228301344778554,0.943905898907129,0,0,0,0,2.04542287739268,-1.23050003745379e-08,0.0411795604824837,0.00467269922495955,0,0,0,0.0111330828562241,0.00246795042082733
48.8,-0.227339022974136,0.940007258491471,0,0,0,0,2.03942567328992,-1.25543307086945e-08,0.0409166451865326,0.00467257739829411,0,0,0,0.0110500049245167,0.00242019720009442
49,-0.226364644942543,0.936093359170335,0,0,0,0,2.0334395405975,-1.27964670856157e-08,0.0406543925795395,0.00467227846753373,0,0,0,0.0109668537501879,0.00237292580005863
49.2,-0.22537850831876,0.932164081030445,0,0,0,0,2.02746363854143,-1.30314171311458e-08,0.0403927634225604,0.00467180479528404,0,0,0,0.0108836320481993,0.00232612885109513
49.4,-0.224380909958705,0.928219302739429,0,0,0,0,2.02149713489376,-1.32591974882218e-08,0.0401317189530583,0.00467115864257967,0,0,0,0.0108003425274044,0.00227979943254964
49.6,-0.223372146341219,0.924258901523332,0,0,0,0,2.01553920509527,-1.34798731898922e-08,0.0398712208385858,0.00467034217676592,0,0,0,0.010716987891465,0.00223393105848494
49.8,-0.222352513924883,0.920282753143693,0,0,0,0,2.00958903148657,-1.36920730881701e-08,0.0396112311328649,0.00466935748020906,0,0,0,0.0106335708395948,0.00218851766409109
50,-0.221322309566337,0.916290731874155,0,0,0,0,2.00364580243181,-1.38971813796324e-08,0.039351712236163,0.0046682065556774,0,0,0,0.0105500940676096,0.00214355359358571
50.2,-0.220281830777264,0.912282710476616,0,0,0,0,1.99770871178254,-1.40940413090318e-08,0.0390926268555904,0.00466689133723313,0,0,0,0.010466560268283,0.00209903358767659
50.4,-0.219231376100264,0.908258560176891,0,0,0,0,1.99177695811693,-1.4283177642363e-08,0.0388339379705695,0.00466541369561656,0,0,0,0.0103829721322692,0.00205495277288261
50.6,-0.218171245358713,0.904218150639886,0,0,0,0,1.98584974424544,-1.44639029833055e-08,0.0385756087987252,0.0046637754477829,0,0,0,0.0102993323484975,0.00201130665062037
50.8,-0.217101739955117,0.900161349944271,0,0,0,0,1.97992627663231,-1.46361055792382e-08,0.0383176027653958,0.00466197836380291,0,0,0,0.010215643604819,0.00196809108745242
51,-0.21602316312671,0.896088024556636,0,0,0,0,1.97400576491481,-1.48005249861471e-08,0.0380598834749663,0.00466002417472203,0,0,0,0.0101319085885025,0.00192530230569966
51.2,-0.214935820138809,0.89199803930511,0,0,0,0,1.96808742155696,-1.49562323272651e-08,0.0378024146836426,0.004657914582078,0,0,0,0.0100481299865028,0.00188293687424551
51.4,-0.213840018537441,0.887891257352457,0,0,0,0,1.9621704613967,-1.510343435214e-08,0.0375451602757662,0.00465565126452723,0,0,0,0.00996431048603235,0.00184099170044279
51.6,-0.212736068318229,0.883767540168595,0,0,0,0,1.95625410136858,-1.52420136442788e-08,0.0372880842410408,0.00465323588699868,0,0,0,0.00988045277481868,0.00179946402196786
51.8,-0.211624282096678,0.879626747502564,0,0,0,0,1.95033756023273,-1.53715079831418e-08,0.0370311506541483,0.00465067010916739,0,0,0,0.00979655954142385,0.00175835139926337
52,-0.210504975281025,0.8754687373539,0,0,0,0,1.94442005830775,-1.54925731410405e-08,0.0367743236566847,0.00464795559326625,0,0,0,0.00971263347563029,0.00171765170853434
52.2,-0.209378466170006,0.871293365943419,0,0,0,0,1.93850081735816,-1.56047849989016e-08,0.0365175674400479,0.00464509401406616,0,0,0,0.00962867726857359,0.00167736313469982
52.4,-0.208245076086006,0.867100487683383,0,0,0,0,1.93257906042009,-1.5708093572403e-08,0.0362608462311061,0.00464208706701261,0,0,0,0.00954469361309176,0.00163748416509509
52.6,-0.207105129461931,0.86288995514704,0,0,0,0,1.9266540117237,-1.58025097070358e-08,0.036004124279202,0.00463893647750942,0,0,0,0.00946068520395293,0.00159801358329626
52.8,-0.205958953908249,0.858661619037519,0,0,0,0,1.92072489666005,-1.5887770814238e-08,0.0357473658448962,0.00463564401038442,0,0,0,0.00937665473808,0.001558950463245
53,-0.204806880271339,0.854415328156068,0,0,0,0,1.91479094176996,-1.59637103293309e-08,0.0354905351905801,0.00463221147916053,0,0,0,0.00929260491482275,0.00152029416373444
53.2,-0.203649242687257,0.85015092936961,0,0,0,0,1.90885137474697,-1.60315716188353e-08,0.0352335965729493,0.00462864075502446,0,0,0,0.00920853843629753,0.00148204432325733
53.4,-0.202486378537587,0.845868267577609,0,0,0,0,1.90290542463178,-1.60901664283952e-08,0.0349765142358236,0.00462493377869265,0,0,0,0.00912445800743041,0.00144420085457402
53.6,-0.201318628499419,0.841567185678219,0,0,0,0,1.89695232182974,-1.61394103533052e-08,0.0347192524062925,0.00462109256857046,0,0,0,0.00904036633647681,0.00140676394029352
53.8,-0.200146336515523,0.837247524533702,0,0,0,0,1.89099129828448,-1.61798356466264e-08,0.0344617752913556,0.00461711923123715,0,0,0,0.00895626613532592,0.00136973402826062
54,-0.198969849736554,0.832909122935104,0,0,0,0,1.88502158770643,-1.62114700500565e-08,0.0342040470758469,0.00461301597242716,0,0,0,0.00887216011980842,0.00133311182710682
54.2,-0.197789518470971,0.828551817566148,0,0,0,0,1.87904242578833,-1.62343687486188e-08,0.0339460319221142,0.00460878510733071,0,0,0,0.00878805101015196,0.00129689830218461
54.4,-0.196605696104018,0.824175442966349,0,0,0,0,1.87305305048019,-1.62482577809042e-08,0.0336876939707913,0.00460442907152773,0,0,0,0.00870394153143882,0.00126109467162189
54.6,-0.19541873901732,0.819779831493312,0,0,0,0,1.86705270226376,-1.6253299353966e-08,0.0334289973430628,0.00459995043152527,0,0,0,0.00861983441419271,0.00122570240268938
54.8,-0.19422900648111,0.815364813284195,0,0,0,0,1.86104062447847,-1.62501312059304e-08,0.0331699061439222,0.00459535189583448,0,0,0,0.00853573239499294,0.00119072320829514
55,-0.193036860502372,0.810930216216329,0,0,0,0,1.85501606372876,-1.62380751206337e-08,0.0329103844661173,0.00459063632710115,0,0,0,0.00845163821706223,0.0011561590435081
55.2,-0.191842665726053,0.806475865866948,0,0,0,0,1.84897827019138,-1.6217719408726e-08,0.032650396396096,0.00458580675221738,0,0,0,0.00836755463119449,0.00112201210269085
55.4,-0.190646789246891,0.802001585472027,0,0,0,0,1.84292649808725,-1.6188663928482e-08,0.0323899060198066,0.00458086637496403,0,0,0,0.00828348439649694,0.00108828481637647
55.6,-0.189449600478947,0.797507195884188,0,0,0,0,1.83686000604402,-1.61518261491272e-08,0.0321288774303663,0.00457581858655066,0,0,0,0.00819943028149577,0.00105497984876525
55.8,-0.188251470932971,0.792992515529661,0,0,0,0,1.83077805762612,-1.61066468044868e-08,0.0318672747353811,0.00457066697874749,0,0,0,0.00811539506506091,0.00102210009496054
56,-0.187052774062766,0.78845736036427,0,0,0,0,1.82467992173417,-1.60534525932982e-08,0.0316050620660742,0.004565415354639,0,0,0,0.0080313815377397,0.000989648678874391
56.2,-0.185853885048896,0.783901543828409,0,0,0,0,1.8185648731161,-1.59924907448816e-08,0.0313422035862771,0.00456006774108564,0,0,0,0.00794739250302548,0.000957628951043038
56.4,-0.184655180586012,0.779324876800998,0,0,0,0,1.81243219286717,-1.59238100552739e-08,0.0310786635021015,0.00455462840086276,0,0,0,0.00786343077880524,0.000926044486734911
56.6,-0.183457038668086,0.774727167552368,0,0,0,0,1.80628116892918,-1.58475537952868e-08,0.0308144060720954,0.00454910184469213,0,0,0,0.00777949919896689,0.000894899084315508
56.8,-0.182259838362395,0.770108221696074,0,0,0,0,1.80011109660513,-1.57640059738479e-08,0.0305493956176406,0.00454349284346627,0,0,0,0.00769560061513608,0.000864196763818141
57,-0.181063959569096,0.765467842139571,0,0,0,0,1.79392127909456,-1.56731215558009e-08,0.0302835965334373,0.00453780644077155,0,0,0,0.00761173789853485,0.000833941765709687
57.2,-0.179869782799342,0.76080582903376,0,0,0,0,1.78771102798975,-1.55755508681604e-08,0.0300169732983848,0.00453204796479655,0,0,0,0.00752791394207586,0.000804138550022459
57.4,-0.178677688898297,0.756121979721334,0,0,0,0,1.78147966386473,-1.54704187377286e-08,0.0297494904857811,0.00452622304174487,0,0,0,0.00744413166244424,0.000774791795481574
57.6,-0.177488058863529,0.751416088683921,0,0,0,0,1.77522651668734,-1.53592963538646e-08,0.0294811127746523,0.00452033760655053,0,0,0,0.00736039400267387,0.000745906399385475
57.8,-0.176301273520965,0.746687947487975,0,0,0,0,1.76895092647906,-1.52412490198039e-08,0.0292118049590421,0.00451439791757861,0,0,0,0.00727670393442247,0.000717487477062254
58,-0.175117713348328,0.741937344729377,0,0,0,0,1.76265224370528,-1.51171989232202e-08,0.0289415319588315,0.00450841056728087,0,0,0,0.00719306446091272,0.000689540362336384
58.2,-0.173937758177132,0.73716406597672,0,0,0,0,1.75632982987431,-1.49865351916495e-08,0.0286702588285499,0.00450238249627257,0,0,0,0.00710947861964657,0.000662070607698212
58.4,-0.172761787002608,0.732367893713227,0,0,0,0,1.7499830579386,-1.48503570569086e-08,0.0283979507669336,0.00449632100461064,0,0,0,0.0070259494856469,0.000635083985281226
58.6,-0.171590177693191,0.727548607277278,0,0,0,0,1.74361131286568,-1.47081393904458e-08,0.0281245731245132,0.00449023376591499,0,0,0,0.00694248017454754,0.000608586487677075
58.8,-0.170423306796029,0.72270598280149,0,0,0,0,1.73721399203309,-1.45601026235731e-08,0.0278500914115308,0.00448412883914327,0,0,0,0.00685907384616586,0.000582584329502744
59,-0.169261549305905,0.717839793150317,0,0,0,0,1.73079050568079,-1.44068575836515e-08,0.0275744713044218,0.00447801468159519,0,0,0,0.00677573370812819,0.000557083949114595
59.2,-0.168105278427742,0.712949807856125,0,0,0,0,1.72434027736717,-1.42481462114818e-08,0.0272976786511248,0.00447190016234555,0,0,0,0.00669246301964756,0.000532092010627426
59.4,-0.166954865395648,0.708035793053696,0,0,0,0,1.71786274432006,-1.40845447058752e-08,0.0270196794758417,0.00446579457458074,0,0,0,0.00660926509564779,0.000507615406511522
59.6,-0.16581067925161,0.703097511413114,0,0,0,0,1.71135735785074,-1.39159679491546e-08,0.0267404399819714,0.00445970764933008,0,0,0,0.00652614331093008,0.0004836612603639
59.8,-0.164673086673341,0.698134722070984,0,0,0,0,1.70482358367652,-1.37425099962923e-08,0.0264599265541652,0.00445364956839682,0,0,0,0.00644310110465929,0.000460236930241914
60,-0.163542451809506,0.693147180559945,0,0,0,0,1.69826090222457,-1.35649164435814e-08,0.0261781057588816,0.00444763097760436,0,0,0,0.0063601419850372,0.000437350012388259
60.2,-0.162419136086617,0.688134638736401,0,0,0,0,1.69166880897785,-1.33823840151731e-08,0.0258949443429333,0.00444166300121905,0,0,0,0.00627726953405712,0.000415008345228879
60.4,-0.161303498119038,0.683096844706444,0,0,0,0,1.68504681463981,-1.31958246916281e-08,0.0256104092314127,0.00443575725451395,0,0,0,0.00619448741273194,0.000393220014158788
60.6,-0.160195893540393,0.678033542749897,0,0,0,0,1.67839444542765,-1.30051561793992e-08,0.0253244675228147,0.00442992585879835,0,0,0,0.00611179936625088,0.000371993356429738
60.8,-0.159096674907759,0.672944473242426,0,0,0,0,1.67171124323707,-1.2810005107014e-08,0.0250370864829819,0.004424181455401,0,0,0,0.00602920922951778,0.000351336966734396
61,-0.158006191636174,0.667829372575655,0,0,0,0,1.66499676575242,-1.26110839011179e-08,0.024748233537277,0.00441853721970809,0,0,0,0.00594672093294034,0.000331259703324145
61.2,-0.156924789908323,0.662687973075237,0,0,0,0,1.65825058659507,-1.24087203637324e-08,0.0244578762602785,0.00441300687650171,0,0,0,0.00586433850831141,0.000311770694484902
61.4,-0.155852812626848,0.657520002916794,0,0,0,0,1.65147229539709,-1.22026674320708e-08,0.0241659823636706,0.00440760471511306,0,0,0,0.00578206609498117,0.000292879345629429
61.6,-0.154790599409022,0.65232518603969,0,0,0,0,1.6446614978026,-1.19930836303683e-08,0.0238725196822284,0.00440234560447705,0,0,0,0.00569990794631737,0.000274595347007975
61.8,-0.153738486583091,0.647103242058539,0,0,0,0,1.63781781546538,-1.17800519443267e-08,0.0235774561573879,0.00439724500897567,0,0,0,0.00561786843633935,0.000256928681916157
62,-0.152696807222548,0.641853886172395,0,0,0,0,1.63094088598348,-1.1563794756822e-08,0.0232807598187378,0.00439231900429254,0,0,0,0.00553595206663196,0.000239889635536762
62.2,-0.151665891198833,0.636576829071551,0,0,0,0,1.6240303628042,-1.13442565514987e-08,0.0229823987631864,0.00438758429366239,0,0,0,0.00545416347348728,0.000223488804367131
62.4,-0.150646065286258,0.631271776841858,0,0,0,0,1.61708591504569,-1.11220314191057e-08,0.022682341132148,0.00438305822378757,0,0,0,0.00537250743537207,0.000207737106347335
62.6,-0.149637653252815,0.625938430866495,0,0,0,0,1.61010722734442,-1.08963653794314e-08,0.0223805550860764,0.00437875880161544,0,0,0,0.00529098888054171,0.000192645791507772
62.8,-0.148640976061908,0.62057648772511,0,0,0,0,1.60309399952731,-1.06678594551796e-08,0.0220770087777279,0.00437470470939946,0,0,0,0.00520961289515145,0.000178226453506764
63,-0.147656352039141,0.615185639090233,0,0,0,0,1.59604594634682,-1.04366195997907e-08,0.0217716703227766,0.00437091532061434,0,0,0,0.00512838473146866,0.000164491041645433
63.2,-0.146684097119663,0.609765571620894,0,0,0,0,1.58896279709375,-1.0202858276992e-08,0.0214645077692363,0.0043674107141538,0,0,0,0.00504730981651221,0.00015145187369302
63.4,-0.145724525122104,0.60431596685333,0,0,0,0,1.58184429517723,-9.96639684842926e-09,0.021155489065517,0.00436421168735316,0,0,0,0.00496639376097889,0.000139121649363394
63.6,-0.144777948086112,0.598836501088704,0,0,0,0,1.57469019761492,-9.72719929777377e-09,0.0208445820280799,0.00436133976650967,0,0,0,0.00488564236856729,0.00012751346452262
63.8,-0.14384467665301,0.593326845277734,0,0,0,0,1.56750027446894,-9.48553856294776e-09,0.0205317543093327,0.00435881721441354,0,0,0,0.00480506164565436,0.0001166408260384
64,-0.142925020484927,0.587786664902119,0,0,0,0,1.56027430823713,-9.2414993019263e-09,0.0202169733669333,0.00435666703384642,0,0,0,0.00472465781132597,0.000106517667208529
64.2,-0.142019288740586,0.582215619852664,0,0,0,0,1.55301209317349,-8.99515603322576e-09,0.0199002064363484,0.00435491296539682,0,0,0,0.00464443730782474,9.71583637254288e-05
64.4,-0.141127790587207,0.576613364303994,0,0,0,0,1.54571343457277,-8.74673429171469e-09,0.0195814205086818,0.00435357947841415,0,0,0,0.0045644068113774,8.85777500008001e-05
64.6,-0.140250835716812,0.570979546585738,0,0,0,0,1.53837814807007,-8.49596559077126e-09,0.0192605823162934,0.00435269175402561,0,0,0,0.00448457324333804,8.07911356074692e-05
64.8,-0.13938873486867,0.56531380905006,0,0,0,0,1.53100605895344,-8.24282464159665e-09,0.0189376583295916,0.00435227565893072,0,0,0,0.00440494378167481,7.38143216039345e-05
65,-0.138541800280401,0.559615787935423,0,0,0,0,1.52359700160799,-7.98811708880437e-09,0.0186126147678444,0.00435235771079899,0,0,0,0.00432552587262304,6.76636162755276e-05
65.2,-0.137710345951085,0.553885113226438,0,0,0,0,1.51615081926527,-7.73136592767398e-09,0.0182854176260154,0.00435296503832533,0,0,0,0.00424632724223095,6.23558497125315e-05
65.4,-0.136894687725519,0.548121408509687,0,0,0,0,1.50866736403431,-7.47256634174576e-09,0.0179560327190029,0.00435412534010848,0,0,0,0.00416735590785533,5.79083868447957e-05
65.6,-0.136095143005477,0.542324290825362,0,0,0,0,1.50114649749662,-7.21219505211285e-09,0.0176244257390986,0.00435586685329797,0,0,0,0.00408862018913622,5.43391381966529e-05
65.8,-0.135312030018555,0.536493370514568,0,0,0,0,1.49358809194902,-6.9502590193532e-09,0.0172905623179941,0.00435821834514904,0,0,0,0.00401012871830486,5.16665679961861e-05
66,-0.134545666671595,0.53062825106217,0,0,0,0,1.48599203223054,-6.68706773114536e-09,0.016954408078712,0.00436120914198734,0,0,0,0.00393189044992283,4.99096996574166e-05
66.2,-0.133796369039179,0.524728528934982,0,0,0,0,1.47835821803561,-6.42300112922711e-09,0.0166159286574186,0.00436486920862438,0,0,0,0.00385391467020057,4.90881190371474e-05
66.4,-0.133064449720669,0.518793793415167,0,0,0,0,1.47068656634983,-6.15802387294445e-09,0.016275089675531,0.00436922928259648,0,0,0,0.00377621100650524,4.92219765543595e-05
66.6,-0.132350216404507,0.512823626428664,0,0,0,0,1.46297701350435,-5.89263764345926e-09,0.0159318566490512,0.00437432105588719,0,0,0,0.00369878943792843,5.03319897308625e-05
66.8,-0.131653970906302,0.506817602368452,0,0,0,0,1.45522951647074,-5.6274527572564e-09,0.0155861948331181,0.00438017738674118,0,0,0,0.00362166030759592,5.24394477605372e-05
67,-0.130976008908488,0.500775287912489,0,0,0,0,1.44744405309141,-5.36252007642818e-09,0.0152380690129494,0.0043868325181598,0,0,0,0.00354483433730937,5.55662195720406e-05
67.2,-0.130316620478848,0.494696241836107,0,0,0,0,1.43962062117175,-5.098338346117e-09,0.0148874432608936,0.00439432228203754,0,0,0,0.00346832264473759,5.97347663370498e-05
67.4,-0.12967609121089,0.488580014818671,0,0,0,0,1.43175923670141,-4.8353738990245e-09,0.0145342806803274,0.00440268427677026,0,0,0,0.00339213676279172,6.49681587020957e-05
67.6,-0.12905470381711,0.482426149244293,0,0,0,0,1.42385993148007,-4.57380256672218e-09,0.0141785431536827,0.00441195801483564,0,0,0,0.00331628866080436,7.12900986446362e-05
67.8,-0.128452739976976,0.476234178996372,0,0,0,0,1.41592275045422,-4.31436454183948e-09,0.0138201911049605,0.00442218504432621,0,0,0,0.00324079076706933,7.87249455561652e-05
68,-0.127870482211892,0.470003629245735,0,0,0,0,1.40794774910111,-4.05711404055653e-09,0.0134591832800723,0.00443340905261661,0,0,0,0.00316565599222785,8.7297746018864e-05
68.2,-0.127308215736198,0.46373401623214,0,0,0,0,1.39993499093402,-3.80233257726847e-09,0.0130954765447093,0.00444567595998921,0,0,0,0.00309089775344437,9.70342668823904e-05
68.4,-0.12676623017485,0.457424847038875,0,0,0,0,1.39188454528117,-3.55083790582605e-09,0.012729025696083,0.00445903401078688,0,0,0,0.0030165299991642,0.000107961031248845
68.6,-0.126244821107489,0.451075619360217,0,0,0,0,1.38379648538792,-3.30269693104429e-09,0.0123597832843028,0.00447353386750845,0,0,0,0.0029425672344218,0.000120105357125693
68.8,-0.125744291504681,0.444685821261446,0,0,0,0,1.37567088674308,-3.0584100980946e-09,0.0119876994399023,0.00448922871105944,0,0,0,0.00286902454694318,0.000133495398650017
69,-0.125264953001775,0.438254930931155,0,0,0,0,1.36750782569892,-2.81828300627285e-09,0.0116127217035967,0.00450617434984117,0,0,0,0.00279591763397503,0.00014816018979428
69.2,-0.124807127076208,0.431782416425538,0,0,0,0,1.35930737828719,-2.58293432042062e-09,0.0112347948559138,0.00452442933869671,0,0,0,0.00272326283008672,0.000164129690597215
69.4,-0.124371146114668,0.425267735404344,0,0,0,0,1.35106961924473,-2.35290215176015e-09,0.010853860744386,0.00454405510858977,0,0,0,0.00265107713598774,0.000181434835973837
69.6,-0.123957354407186,0.418710334858185,0,0,0,0,1.34279462119341,-2.1286246775637e-09,0.0104698581068889,0.00456511610727882,0,0,0,0.0025793782485385,0.000200107587221704
69.8,-0.123566109080508,0.412109650826833,0,0,0,0,1.33448245395439,-1.91071549814764e-09,0.0100827223899411,0.00458767995121401,0,0,0,0.00250818459207229,0.000220180986358727
70,-0.123197780967972,0.405465108108164,0,0,0,0,1.32613318399735,-1.69970028243011e-09,0.00969238556098429,0.00461181758883966,0,0,0,0.00243751535111059,0.000241689213454322
70.2,-0.122852755443224,0.398776119957368,0,0,0,0,1.31774687398572,-1.49645455662512e-09,0.00929877591407601,0.00463760347539216,0,0,0,0.00236739050463861,0.000264667647140728
70.4,-0.122531433194728,0.392042087776023,0,0,0,0,1.30932358244638,-1.30156987184632e-09,0.00890181786824263,0.0046651157594256,0,0,0,0.00229783086197932,0.00028915292850771
70.6,-0.122234230982388,0.385262400790645,0,0,0,0,1.3008633635071,-1.11605291241296e-09,0.00850143175824506,0.00469443648122949,0,0,0,0.00222885810048247,0.000315183028602541
70.8,-0.121961582335239,0.378436435720245,0,0,0,0,1.29236626675412,-9.40679171709813e-10,0.00809753361704538,0.00472565178346949,0,0,0,0.00216049480502948,0.000342797319776648
71,-0.121713938226511,0.371563556432483,0,0,0,0,1.28383233716019,-7.76280605768731e-10,0.00769003494977503,0.00475885213435149,0,0,0,0.00209276450957075,0.000372036651134085
71.2,-0.121491767711308,0.364643113587909,0,0,0,0,1.27526161510093,-6.24092887611949e-10,0.00727884249868941,0.00479413256373027,0,0,0,0.002025691740781,0.000402943428356546
71.4,-0.121295583598736,0.357674444271816,0,0,0,0,1.26665410470017,-2.0770678428074e-09,0.00686385813039469,0.00483159297882243,0,0,0,0.0019593021346105,0.000435561687597376
71.6,-0.121125836504239,0.350656871613169,0,0,0,0,1.25800990909202,-1.5643305977843e-09,0.00644497801893298,0.00487133815817375,0,0,0,0.00189362218490799,0.000469937228966127
71.8,-0.120983085057373,0.343589704390077,0,0,0,0,1.24932901517584,-1.11294010986251e-09,0.00602209328329696,0.00491347843525566,0,0,0,0.0018286797708128,0.000506117643292527
72,-0.120867876174278,0.336472236621213,0,0,0,0,1.24061144693261,-7.29180572693611e-10,0.0055950890674851,0.00495812972415984,0,0,0,0.00176450387338895,0.000544152458966408
72.2,-0.120867876174278,0.3293037471426,0,0,0,0,1.23174993659738,-5.55994882955489e-06,0.00516424522493795,0.00500586694305264,0,0,0,0.00170137902689365,0.000584038221555888
72.4,-0.120747960142169,0.322083499169113,0,0,0,0,1.22303507898276,-1.63590491097845e-06,0.0047283453935691,0.00505560907552594,0,0,0,0.0016386492372801,0.000625976250884537
72.6,-0.120747960142169,0.314810739840034,0,0,0,0,1.21417250594666,-3.50214707690866e-06,0.00428835082803088,0.00510875742986647,0,0,0,0.00157704692784824,0.00066986994526359
72.8,-0.120747960142169,0.307484699747961,0,0,0,0,1.20530993291055,-3.45436618677487e-06,0.00384358086954904,0.00516476715409451,0,0,0,0.00151625190782684,0.000715858187611163
73,-0.120747960142169,0.300104592450338,0,0,0,0,1.19644735987444,-1.43971632286279e-06,0.00339390005548421,0.00522372086493176,0,0,0,0.00145629525366696,0.00076400651533052
73.2,-0.120747960142169,0.29266961396282,0,0,0,0,1.18758478683834,2.59749266762503e-06,0.00293916609031434,0.00528570516774749,0,0,0,0.00139720931826676,0.000814383045156262
73.4,-0.12088295151345,0.285178942233662,0,0,0,0,1.17856310721348,-1.04346635889166e-09,0.00247970926706059,0.00535206965878899,0,0,0,0.00133944705468505,0.000866936577754017
73.6,-0.121010290626317,0.27763173659828,0,0,0,0,1.16955279116994,-9.33970966971592e-10,0.00201481742033501,0.00542176893434942,0,0,0,0.00128260954570181,0.000921859097573345
73.8,-0.121171056869398,0.27002713721306,0,0,0,0,1.16050595757121,-1.49737696027163e-09,0.00154445961954782,0.00549533317690259,0,0,0,0.00122686336297052,0.000979188360456993
74,-0.121366002203877,0.262364264467491,0,0,0,0,1.15142264711398,-2.2147089821789e-09,0.00106844492742803,0.00557295458969998,0,0,0,0.00117225302341199,0.00103900024574135
74.2,-0.121595907596195,0.254642218373581,0,0,0,0,1.14230289804119,-3.09829453109048e-09,0.000586572682433208,0.00565483552394791,0,0,0,0.00111882507656428,0.00110137416101384
74.4,-0.121861527734724,0.246860077931525,0,0,0,0,1.13314681022577,-1.11250392838963e-09,9.86318799299996e-05,0.005741188329076,0,0,0,0.00106662802560694,0.00116639330668215
74.6,-0.122163762854108,0.2390169004705,0,0,0,0,1.12395435095386,-1.43891164868654e-09,-0.000395598852683362,0.00583223812443121,0,0,0,0.00101571300157375,0.00123414471232876
74.8,-0.122503418264586,0.231111720963387,0,0,0,0,1.11472562979513,-1.81841708444402e-09,-0.000896352430717163,0.0059282203719488,0,0,0,0.000966133088864244,0.00130471972463691
75,-0.122881352259038,0.22314355131421,0,0,0,0,1.10546073083883,-2.25485015164714e-09,-0.00140387343911014,0.00602938334855124,0,0,0,0.000917943930716043,0.00137821410036913
75.2,-0.123298440528653,0.215111379616945,0,0,0,0,1.09615975425832,-2.75262729818905e-09,-0.00191841880066223,0.00613598837505938,0,0,0,0.000871203741543452,0.00145472830793258
75.4,-0.123755575142805,0.207014169384326,0,0,0,0,1.08682281833529,-3.3166793773215e-09,-0.00244025837702311,0.00624831050588835,0,0,0,0.000825973439743566,0.00153436780979441
75.6,-0.124253663389632,0.198850858745165,0,0,0,0,1.07745006157492,-3.95106296876939e-09,-0.00296967560253061,0.00636663925426967,0,0,0,0.000782316788092758,0.00161724336319385
75.8,-0.124793626551323,0.19062035960865,0,0,0,0,1.06804164482255,-4.66129187570545e-09,-0.00350696815316782,0.00649127935637677,0,0,0,0.000740300542494764,0.00170347134030117
76,-0.125376398497781,0.182321556793955,0,0,0,0,1.05859775349908,-5.45273711957412e-09,-0.0040524486534229,0.0066225515746295,0,0,0,0.000699994609200915,0.00179317406929098
76.2,-0.126002924183356,0.173953307123438,0,0,0,0,1.04911859985263,-6.33074716282524e-09,-0.00460644542368424,0.0067607935439678,0,0,0,0.000661472211368071,0.00188648019765586
76.4,-0.126674158035067,0.165514438477573,0,0,0,0,1.03960442523036,-7.30174709432686e-09,-0.00516930327122387,0.00690636066357438,0,0,0,0.000624810065529346,0.00198352507930315
76.6,-0.127391062176348,0.157003748809665,0,0,0,0,1.03005550241887,-8.37147728390128e-09,-0.0057413843280575,0.00705962703562638,0,0,0,0.000590088568417372,0.00208445118714995
76.8,-0.12815460458019,0.148420005118273,0,0,0,0,1.02047213794472,-9.54661713928068e-09,-0.00632306893909688,0.00722098645596939,0,0,0,0.000557391995195267,0.00218940855286799
77,-0.128965757073596,0.139761942375159,0,0,0,0,1.010854674407,-1.08343818000024e-08,-0.00691475660443218,0.00739085345830479,0,0,0,0.000526808709553971,0.00229855523577741
77.2,-0.129825493221988,0.131028262406404,0,0,0,0,1.00120349280136,-1.22417971224644e-08,-0.00751686697976279,0.00756966441582744,0,0,0,0.000498431386588534,0.00241205782290233
77.4,-0.130734786125591,0.122217632724249,0,0,0,0,0.991519014793495,-1.37766176233341e-08,-0.00812984093934984,0.00775787870481012,0,0,0,0.000472357249456019,0.00253009196235405
77.6,-0.131694606084135,0.113328685307003,0,0,0,0,0.981801704976759,-1.54465721277663e-08,-0.00875414170619378,0.00795597993304655,0,0,0,0.000448688320578603,0.00265284293247512
77.8,-0.132705918176576,0.104360015324243,0,0,0,0,0.97205207305743,-1.72597942840096e-08,-0.00939025605449859,0.00816447723859177,0,0,0,0.000427531688595212,0.00278050624925216
78,-0.133769679741895,0.0953101798043247,0,0,0,0,0.962270675973094,-1.92250532657107e-08,-0.0100386955898733,0.0083839066631065,0,0,0,0.000408999792102761,0.00291328831478662
78.2,-0.13488683776255,0.0861776962410522,0,0,0,0,0.952458119933674,-2.13513981754286e-08,-0.0106999981131214,0.0086148326048105,0,0,0,0.000393210721375405,0.00305140710981486
78.4,-0.136058326170695,0.076961041136128,0,0,0,0,0.942615062357398,-2.36480746731733e-08,-0.0113747290739378,0.00885784935700801,0,0,0,0.000380288539431063,0.00319509293349102
78.6,-0.137285063091144,0.0676586484738151,0,0,0,0,0.932742213681317,-2.61251070434072e-08,-0.0120634831213343,0.00911358273850393,0,0,0,0.000370363623902513,0.0033445891939225
78.8,-0.138567948006812,0.0582689081239758,0,0,0,0,0.922840339053225,-2.87928582191899e-08,-0.0127668857580805,0.0093826918218132,0,0,0,0.000363573031157166,0.00350015325326928
79,-0.139907858860592,0.0487901641694318,0,0,0,0,0.912910259885089,-3.16607795941819e-08,-0.0134855951070455,0.00966587076638504,0,0,0,0.000360060884362546,0.00366205733150376
79.2,-0.141305649175008,0.0392207131532811,0,0,0,0,0.902952855188449,-3.47405189149528e-08,-0.0142203037981505,0.00996385076723481,0,0,0,0.000359978787683163,0.00383058947321629
79.4,-0.142762145066235,0.029558802241544,0,0,0,0,0.892969062801794,-3.80435311081364e-08,-0.0149717409848168,0.0102774021228345,0,0,0,0.000363486267953958,0.00400605458243984
79.6,-0.14427814227923,0.0198026272961799,0,0,0,0,0.882959880389353,-4.1581474010538e-08,-0.0157406745001088,0.0106073364354599,0,0,0,0.000370751246559672,0.00418877553063402
79.8,-0.145854403219301,0.00995033085316809,0,0,0,0,0.872926366233318,-4.53666726641863e-08,-0.016527913163268,0.010954508952934,0,0,0,0.00038195054372476,0.00437909434359256
80,-0.147491653967603,0,0,0,0,0,0.862869639829292,-4.94106362548298e-08,-0.0173343092481742,0.0113198210617232,0,0,0,0.000397270417666763,0.00457737347352194
