t,LE11,LE22,LE33,LE12,LE13,LE23,J,S11,S22,S33,S12,S13,S23,psiE,psiNE
0,0,0,0,0,0,0,1,0,0,0,0,0,0,0,0
0.2,0.00214764099097503,0.00995033085316809,0.00214764098590156,0,0,0,1.01434756512152,-5.66522337147515e-09,0.000629295537083041,-5.66562974256535e-09,0,0,0,2.0695172752664e-06,1.04848774165088e-06
0.4,0.00413618295546844,0.0198026272961797,0.00413618294961474,0,0,0,1.02847280999788,-3.84332640620535e-09,0.00124882513361983,-3.8437866260667e-09,0,0,0,8.09625775078146e-06,4.17024308054863e-06
0.6,0.00597377054275235,0.0295588022415444,0.00597377054479689,0,0,0,1.04237977398845,-2.44336513153219e-09,0.00185878177370657,-2.44320805546563e-09,0,0,0,1.7823915272609e-05,9.32688154258546e-06
0.8,0.00766823037008355,0.0392207131532813,0.00766823037437902,0,0,0,1.05607285448908,-1.3838745573742e-09,0.00245935816531529,-1.38354986007391e-09,0,0,0,3.10165997023023e-05,1.64767638943944e-05
1,0.00922692047500147,0.048790164169432,0.00922692047982684,0,0,0,1.06955642358534,-6.039508225128e-10,0.00305074594599675,-6.03593037530603e-10,0,0,0,4.74569395470082e-05,2.55756203673974e-05
1.2,0.0106567512998508,0.0582689081239758,0.0106567512938785,0,0,0,1.08283479304494,-4.49833889755447e-11,0.00363313411335426,-4.54197864215022e-11,0,0,0,6.69443686952238e-05,3.65770458477803e-05
1.4,0.0119642133235249,0.0676586484738149,0.01196421332742,0,0,0,1.09591219922949,3.35444955883515e-10,0.00420670838703722,3.35723262774937e-10,0,0,0,8.92935910657324e-05,4.94329136039281e-05
1.6,0.0131554066750596,0.0769610411361284,0.0131554066714665,0,0,0,1.10879279839971,5.7837892634971e-10,0.00477165098130701,5.78125415812494e-10,0,0,0,0.000114333208083028,6.40937268062322e-05
1.8,0.0142360698071711,0.0861776962410524,0.0142360698129585,0,0,0,1.12148066649699,7.12580775419011e-10,0.00532814060699608,7.12981297916124e-10,0,0,0,0.000141904490892835,8.05089207580493e-05
2,0.0152116071235927,0.0953101798043249,0.0152116071278428,0,0,0,1.1339798022226,7.65873641849629e-10,0.00587635259344716,7.66162475910465e-10,0,0,0,0.000171860281539471,9.86271234742295e-05
2.2,0.0160871146031731,0.104360015324243,0.0160871146041004,0,0,0,1.14629413140916,7.59917933267074e-10,0.00641645908370834,7.59979587074133e-10,0,0,0,0.000204064007580274,0.000118396381656538
2.4,0.0168674036414608,0.113328685307003,0.0168674036426406,0,0,0,1.15842751225928,7.11565544334047e-10,0.00694862926448356,7.11642699196408e-10,0,0,0,0.000238388796984958,0.000139764356934638
2.6,0.0175570230255876,0.122217632724249,0.017557023026643,0,0,0,1.17038374097782,6.35771425522985e-10,0.00747302960767648,6.35839174280978e-10,0,0,0,0.000274716681543767,0.000162678496500396
2.8,0.0181602789873919,0.131028262406404,0.0181602789873166,0,0,0,1.18216655718529,5.4366923376431e-10,0.00798982411081382,5.43663875203493e-10,0,0,0,0.000312937878083847,0.00018708618202963
3,0.0186812535656603,0.139761942375159,0.0186812535639295,0,0,0,1.1937796491692,4.45204846079295e-10,0.00849917452226093,4.45095408880408e-10,0,0,0,0.000352950138655384,0.00021293485949081
3.2,0.0191238212348497,0.148420005118273,0.019123821235559,0,0,0,1.20522665849288,3.47136420303373e-10,0.00900124054718167,3.47179472236919e-10,0,0,0,0.000394658161338351,0.000240172152854915
3.4,0.0194916640522323,0.157003748809665,0.0194916640517502,0,0,0,1.21651118415365,2.55497271343247e-10,0.00949618002601512,2.55466767965645e-10,0,0,0,0.000437973055022626,0.000268745963425121
3.6,0.0197882944851969,0.165514438477573,0.0197882944850741,0,0,0,1.22763680852279,7.84932558187124e-10,0.00998414885195327,7.84923930973597e-10,0,0,0,0.000482811881702286,0.000298604512763746
3.8,0.0200170276919358,0.173953307123438,0.0200170276922962,0,0,0,1.23860700180806,4.96167064465564e-10,0.0104653021069474,4.96187010749771e-10,0,0,0,0.000529097081308562,0.00032969661084313
4,0.0201810585576787,0.182321556793955,0.0201810585576271,0,0,0,1.24942528540307,2.69380549984544e-10,0.0109397924790224,2.69375773423453e-10,0,0,0,0.000576756276626312,0.000361971411302561
4.2,0.0201810585576787,0.19062035960865,0.0201810585576271,0,0,0,1.25983716278143,-6.96871630419087e-06,0.0114103953922066,-6.96871630892276e-06,0,0,0,0.000625357735075333,0.000395952490177679
4.4,0.0203270256090466,0.198850858745165,0.0203270256105448,0,0,0,1.27061992330963,2.33403743381266e-10,0.0118693893694709,2.33485866057981e-10,0,0,0,0.000675930131069275,0.000429868843927437
4.6,0.0203270256090466,0.207014169384326,0.0203270256105448,0,0,0,1.28103484071381,8.56546456018056e-07,0.0123244750207148,8.56546536878722e-07,0,0,0,0.000727368355994995,0.000465317124167876
4.8,0.0203270256090466,0.215111379616945,0.0203270256105448,0,0,0,1.29144975811799,5.43730637786975e-06,0.0127721117782197,5.43730645741723e-06,0,0,0,0.000780140065848376,0.000501404882672808
5,0.0201968156396902,0.22314355131421,0.0201968156409898,0,0,0,1.30152568814435,4.5186383337472e-06,0.0132158794052759,4.51863840141096e-06,0,0,0,0.000833688409087949,0.000538923558987935
5.2,0.0200557838730953,0.231111720963387,0.0200557838732911,0,0,0,1.31156789599432,6.2370381672585e-06,0.0136528938419685,6.23703817521741e-06,0,0,0,0.000888410177569432,0.000577082396450705
5.4,0.0198675503878144,0.2390169004705,0.0198675503890114,0,0,0,1.32147957794143,7.89732544155021e-06,0.0140842996375676,7.89732550216492e-06,0,0,0,0.000944111183181987,0.000616083033936494
5.6,0.0195016358376945,0.246860077931526,0.0195016358383455,0,0,0,1.33091057337331,2.30615017533797e-10,0.0145137372868922,2.30646331894624e-10,0,0,0,0.00100020636884455,0.000656861215710468
5.8,0.0192051352198947,0.254642218373581,0.019205135221143,0,0,0,1.34051315053136,3.13648418001633e-10,0.014934906154946,3.13710931364175e-10,0,0,0,0.00105764571026518,0.00069760304419902
6,0.0188689816775072,0.262364264467491,0.0188689816779334,0,0,0,1.34999680775678,4.05683625581688e-10,0.0153508591768248,4.05703807354607e-10,0,0,0,0.0011159443828894,0.000739057664843298
6.2,0.0184951306303502,0.27002713721306,0.0184951306286299,0,0,0,1.35936461873355,5.04623736893861e-10,0.0157617311684929,5.04536817706736e-10,0,0,0,0.00117506648222832,0.000781182534061901
6.4,0.0180854540797646,0.27763173659828,0.0180854540791527,0,0,0,1.3686196056378,6.09520792345386e-10,0.0161676546842635,6.09489646252737e-10,0,0,0,0.00123497817038634,0.000823935988866143
6.6,0.0176417435784422,0.285178942233662,0.0176417435800882,0,0,0,1.37776473595684,7.18420175779833e-10,0.0165687598821476,7.18499169882758e-10,0,0,0,0.00129564752804922,0.000867277256194823
6.8,0.0171657130344606,0.29266961396282,0.0171657130338964,0,0,0,1.38680291949782,8.30230119895636e-10,0.0169651743887426,8.30201874260639e-10,0,0,0,0.00135704441731557,0.000911166459591215
7,0.0166590012847384,0.300104592450338,0.0166590012841294,0,0,0,1.39573700536402,9.43403792585951e-10,0.0173570231684882,9.43373821768456e-10,0,0,0,0.00141914035424958,0.000955564624176889
7.2,0.0161231745477507,0.307484699747961,0.0161231745477525,0,0,0,1.40456977909293,1.05661643063498e-09,0.0177444283977843,1.05661528051332e-09,0,0,0,0.00148190839074727,0.00100043367961579
7.4,0.0155597287364207,0.314810739840034,0.0155597287378933,0,0,0,1.41330395996245,1.16893188531475e-09,0.0181275093460225,1.16899850910457e-09,0,0,0,0.00154532300507419,0.00104573646128643
7.6,0.0149700916633249,0.322083499169113,0.0149700916626145,0,0,0,1.42194219845891,1.27949635435332e-09,0.0185063822654496,1.27946160697473e-09,0,0,0,0.00160936000046517,0.0010914367099199
7.8,0.0143556251483384,0.3293037471426,0.0143556251527832,0,0,0,1.43048707396841,1.38660349001396e-09,0.0188811602908487,1.38680235611116e-09,0,0,0,0.00167399641132655,0.00113749906972352
8,0.0137176271238203,0.336472236621213,0.0137176271221663,0,0,0,1.43894109280802,1.49074108699715e-09,0.0192519533491527,1.49066617296384e-09,0,0,0,0.00173921041670706,0.00118388908476034
8.2,0.0130573335618301,0.343589704390077,0.01305733356319,0,0,0,1.44730668632967,1.58981563937871e-09,0.0196188680827298,1.58987383067771e-09,0,0,0,0.00180498126014186,0.00123057319471121
8.4,0.0123759205180505,0.350656871613169,0.0123759205200307,0,0,0,1.45558620955865,1.68434046137617e-09,0.0199820077824776,1.6844241227526e-09,0,0,0,0.00187128917613933,0.00127751872853335
8.6,0.0116745060004936,0.357674444271816,0.0116745059981591,0,0,0,1.46378193987214,1.7733306281742e-09,0.0203414723362335,1.77322773478594e-09,0,0,0,0.0019381153221239,0.00132469389792767
8.8,0.010954151907672,0.364643113587909,0.0109541519087141,0,0,0,1.47189607619639,1.85696087586645e-09,0.0206973581880093,1.85700335317285e-09,0,0,0,0.0020054417161823,0.00137206778900403
9,0.0102158658932607,0.371563556432483,0.0102158658953579,0,0,0,1.47993073827944,1.93412745021215e-09,0.0210497583125949,1.93421372581687e-09,0,0,0,0.00207325117956211,0.00141961035388783
9.2,0.00946060325852351,0.378436435720245,0.00946060325642691,0,0,0,1.48788796648434,2.00455850356274e-09,0.021398762200975,2.00446968919021e-09,0,0,0,0.00214152728425827,0.00146729240069726
9.4,0.00868926881949317,0.385262400790645,0.00868926881789156,0,0,0,1.49576972180321,2.06954197962822e-09,0.0217444558592725,2.06947430806542e-09,0,0,0,0.00221025430489995,0.00151508558307506
9.6,0.00790271870224613,0.392042087776024,0.00790271870738764,0,0,0,1.5035778859322,2.12715897760646e-09,0.0220869218224604,2.12736689982757e-09,0,0,0,0.00227941717439851,0.00156296239001926
9.8,0.00710176227343081,0.398776119957368,0.00710176226709551,0,0,0,1.51131426206024,2.17927938282042e-09,0.0224262391756618,2.17902110678098e-09,0,0,0,0.00234900144404663,0.00161089613347681
10,0.00628716385720945,0.405465108108164,0.00628716385607176,0,0,0,1.51898057546786,2.22428301124844e-09,0.0227624835915023,2.22423514328884e-09,0,0,0,0.00241899324644534,0.00165886093731158
10.2,0.00545964465598647,0.412109650826833,0.00545964465584271,0,0,0,1.52657847471992,2.26320079430714e-09,0.0230957273748234,2.26319159073174e-09,0,0,0,0.00248937926217596,0.00170683172456555
10.4,0.00461988448474108,0.418710334858185,0.004619884486555,0,0,0,1.53410953286702,2.29581611967816e-09,0.0234260395198471,2.29588429604549e-09,0,0,0,0.00256014668911123,0.00175478420538083
10.6,0.00376852358315817,0.425267735404344,0.00376852358582883,0,0,0,1.541575248971,2.32204737382613e-09,0.0237534857756737,2.32214716899826e-09,0,0,0,0.00263128321461098,0.00180269486431748
10.8,0.0029061644043621,0.431782416425538,0.0029061644094242,0,0,0,1.54897704988333,2.3439059877034e-09,0.0240781287198795,2.3440974387251e-09,0,0,0,0.00270277699028453,0.00185054094734034
11,0.00203337329416578,0.438254930931155,0.0020333732951758,0,0,0,1.5563162918876,2.35943089371693e-09,0.0244000278432937,2.35946550838917e-09,0,0,0,0.00277461660858017,0.00189830045014911
11.2,0.00115068227801969,0.444685821261446,0.00115068228114958,0,0,0,1.56359426298067,2.36867821190589e-09,0.0247192396368619,2.36879219364661e-09,0,0,0,0.00284679108211871,0.00194595210450078
11.4,0.000258590774999863,0.451075619360217,0.000258590772462771,0,0,0,1.57081218503497,2.37411733848558e-09,0.0250358176874984,2.37401803250548e-09,0,0,0,0.00291928982452441,0.00199347536574488
11.6,-0.000642432828203632,0.457424847038875,-0.000642432829366005,0,0,0,1.57797121589766,2.37395020308284e-09,0.0253498127814182,2.37390277747773e-09,0,0,0,0.00299210263270004,0.00204085040137044
11.8,-0.00155194944514489,0.46373401623214,-0.00155194944357382,0,0,0,1.58507245202835,2.36917180318486e-09,0.0256612730075665,2.36922509909421e-09,0,0,0,0.00306521967122232,0.00208805807783671
12,-0.0024695477326388,0.470003629245736,-0.00246954772960496,0,0,0,1.59211693090121,2.3604131513949e-09,0.0259702438683943,2.36051973800944e-09,0,0,0,0.00313863145766229,0.00213507994908399
12.2,-0.00339484253114736,0.476234178996372,-0.00339484252954287,0,0,0,1.59910563356314,2.34755508435325e-09,0.0262767683929149,2.34760940201473e-09,0,0,0,0.00321232884925181,0.00218189824495364
12.4,-0.00432747333589623,0.482426149244293,-0.00432747333274156,0,0,0,1.60603948728948,2.33031802535089e-09,0.0265808872517719,2.33042657914184e-09,0,0,0,0.00328630303070011,0.00222849585972232
12.6,-0.00526710279058931,0.488580014818671,-0.00526710279044723,0,0,0,1.61291936829793,2.30984168771153e-09,0.0268826388738654,2.30984019931879e-09,0,0,0,0.00336054550300285,0.00227485634086612
12.8,-0.00621341528480172,0.494696241836107,-0.00621341528911545,0,0,0,1.61974610436706,2.28613213602846e-09,0.0271820595654324,2.2859745832382e-09,0,0,0,0.00343504807295683,0.00232096387873234
13,-0.00716611555104594,0.500775287912489,-0.00716611554765487,0,0,0,1.62652047757282,2.25887165916649e-09,0.02747918362849,2.25898236748401e-09,0,0,0,0.00350980284357071,0.00236680329606444
13.2,-0.00812492728968052,0.506817602368452,-0.00812492728781949,0,0,0,1.6332432270116,2.22865407205342e-09,0.0277740434793649,2.22870971157418e-09,0,0,0,0.00358480220512178,0.00241236003793363
13.4,-0.00908959190411948,0.512823626428664,-0.00908959189738611,0,0,0,1.63991505149748,2.19584006533324e-09,0.0280666697667755,2.19606365037261e-09,0,0,0,0.00366003882677544,0.00245762016207442
13.6,-0.0100598672206876,0.518793793415168,-0.010059867223731,0,0,0,1.64653661220575,2.16112869093343e-09,0.0283570914891988,2.16101668330804e-09,0,0,0,0.00373550564867191,0.00250257032971301
13.8,-0.0110355263376456,0.524728528934982,-0.0110355263341517,0,0,0,1.6531085352854,2.12340452165893e-09,0.0286453361106965,2.12351650673293e-09,0,0,0,0.0038111958744528,0.00254719779671599
14,-0.0120163563915857,0.53062825106217,-0.012016356396513,0,0,0,1.65963141452964,2.08389072317572e-09,0.0289314296736591,2.0837203750651e-09,0,0,0,0.00388710296427515,0.00259149040454798
14.2,-0.0130021575316534,0.536493370514568,-0.0130021575366494,0,0,0,1.66610581385506,2.04250688064234e-09,0.0292153969108398,2.04233641630525e-09,0,0,0,0.00396322062797697,0.00263543657221341
14.4,-0.0139927418264056,0.542324290825362,-0.0139927418245865,0,0,0,1.67253226978408,1.99929341658522e-09,0.0294972613540866,1.99934966846338e-09,0,0,0,0.00403954281858322,0.00267902528817573
14.6,-0.0149879322670484,0.548121408509688,-0.0149879322655533,0,0,0,1.67891129385872,1.95424006491085e-09,0.0297770454401202,1.95428317625868e-09,0,0,0,0.00411606372602989,0.00272224610251481
14.8,-0.0159875618219221,0.553885113226438,-0.0159875618181987,0,0,0,1.68524337501705,1.90767313751339e-09,0.030054770612786,1.90778850009399e-09,0,0,0,0.00419277777110641,0.00276508911915124
15,-0.0169914725227129,0.559615787935423,-0.0169914725243126,0,0,0,1.69152898181687,1.85990638515432e-09,0.0303304574227335,1.85984802385242e-09,0,0,0,0.0042696795994651,0.0028075449886317
15.2,-0.0179995146252642,0.565313809050061,-0.017999514619616,0,0,0,1.69776856464702,1.81128752795023e-09,0.0306041256226693,1.81146160918577e-09,0,0,0,0.00434676407582338,0.00284960490071932
15.4,-0.0190115457854781,0.570979546585738,-0.0190115457906866,0,0,0,1.70396255774194,1.76129188837748e-09,0.0308757942601526,1.76111709764004e-09,0,0,0,0.00442402627814695,0.00289126057769096
15.6,-0.0200274303186421,0.576613364303994,-0.0200274303165466,0,0,0,1.71011138132101,1.71038988007466e-09,0.0311454817639018,1.71044797249442e-09,0,0,0,0.0045014614921183,0.00293250426660781
15.8,-0.0210470384624614,0.582215619852664,-0.0210470384566984,0,0,0,1.71621544336833,1.65834984286461e-09,0.0314132060292605,1.65852452951865e-09,0,0,0,0.00457906520539119,0.00297332873304736
16,-0.0220702457195447,0.587786664902119,-0.0220702457159877,0,0,0,1.72227514154667,1.60565797636958e-09,0.0316789844968157,1.60576335388185e-09,0,0,0,0.00465683310210719,0.00301372725367353
16.2,-0.0230969322329974,0.593326845277734,-0.0230969322346822,0,0,0,1.72829086489703,1.55312345449798e-09,0.0319428342281948,1.55306523544341e-09,0,0,0,0.00473476105731925,0.00305369360940772
16.4,-0.0241269822371988,0.598836501088704,-0.0241269822351009,0,0,0,1.73426299536167,1.49893344091045e-09,0.0322047719786382,1.498991302612e-09,0,0,0,0.00481284513136496,0.0030932220790084
16.6,-0.0251602834433072,0.60431596685333,-0.0251602834449753,0,0,0,1.74019190950752,1.44472191848655e-09,0.0324648142616143,1.44466370637086e-09,0,0,0,0.00489108156451071,0.00313230743097161
16.8,-0.0261967266245217,0.609765571620894,-0.0261967266205156,0,0,0,1.74607797977476,1.38950979368391e-09,0.0327229774137834,1.38962777569696e-09,0,0,0,0.00496946677126431,0.00317094491736001
17,-0.0272362050815435,0.615185639090233,-0.027236205085366,0,0,0,1.75192157594407,1.33462219747971e-09,0.0329792776517812,1.33450349208697e-09,0,0,0,0.00504799733496145,0.00320913026579701
17.2,-0.0282786142987361,0.62057648772511,-0.0282786143018746,0,0,0,1.7577230662512,1.27898352499101e-09,0.0332337311279169,1.27887744144628e-09,0,0,0,0.0051266700021347,0.00324685967269216
17.4,-0.029323851487818,0.625938430866495,-0.0293238514929192,0,0,0,1.76348281864142,1.2235313300718e-09,0.0334863539787119,1.22336933812417e-09,0,0,0,0.00520548167707162,0.00328412979500043
17.6,-0.0303718152927367,0.631271776841858,-0.0303718152984095,0,0,0,1.76920120170948,1.16757865355199e-09,0.0337371623719986,1.16740036561203e-09,0,0,0,0.00528442941619755,0.00332093774297131
17.8,-0.031422405439635,0.636576829071551,-0.0314224054393556,0,0,0,1.7748785857484,1.11176729454543e-09,0.0339861725473904,1.11176705862304e-09,0,0,0,0.00536351042261412,0.00335728107157055
18,-0.0324755224682107,0.641853886172395,-0.0324755224720878,0,0,0,1.78051534351845,1.05588374155197e-09,0.034233400855071,1.05576462502976e-09,0,0,0,0.00544272204050272,0.00339315777268693
18.2,-0.0335310674935041,0.647103242058539,-0.033531067499252,0,0,0,1.78611185105837,9.99290398692732e-10,0.0344788637890185,9.99111371760564e-10,0,0,0,0.00552206174963484,0.00342856626637213
18.4,-0.0345889419410567,0.65232518603969,-0.0345889419467925,0,0,0,1.79166848844541,9.43778005399465e-10,0.0347225780158387,9.43599016631214e-10,0,0,0,0.00560152715991293,0.00346350539157889
18.6,-0.0356490474125072,0.657520002916794,-0.0356490474141262,0,0,0,1.79718564020704,8.88123475803471e-10,0.034964560403293,8.88064351223239e-10,0,0,0,0.00568111600576472,0.00349797439811388
18.8,-0.0367112854711387,0.662687973075237,-0.0367112854728445,0,0,0,1.80266369598026,8.32404879400062e-10,0.0352048280409443,8.3234518583053e-10,0,0,0,0.0057608261407789,0.00353197293645516
19,-0.0377755575259748,0.667829372575656,-0.037775557527791,0,0,0,1.80810305089454,7.76233965993356e-10,0.0354433982598267,7.76173715577588e-10,0,0,0,0.00584065553224715,0.0035655010483825
19.2,-0.0388417646795995,0.672944473242426,-0.0388417646813185,0,0,0,1.81350410602379,7.21728531105637e-10,0.0356802886468055,7.21669233053057e-10,0,0,0,0.00592060225583039,0.00359855915648316
19.4,-0.0399098077035301,0.678033542749897,-0.0399098077031232,0,0,0,1.81886726842432,6.664286726632e-10,0.0359155170602333,6.66428702153499e-10,0,0,0,0.00600066449009506,0.00363114805533428
19.6,-0.0409795868842177,0.683096844706444,-0.0409795868812822,0,0,0,1.82419295162774,6.11394915597807e-10,0.0361491016355302,6.11467706329583e-10,0,0,0,0.00608084051138623,0.00366326889938841
19.8,-0.0420510020057332,0.688134638736401,-0.0420510020058069,0,0,0,1.82948157565151,5.57400828618548e-10,0.0363810607932864,5.57387944827292e-10,0,0,0,0.0061611286885433,0.00369492319295933
20,-0.0431239523392768,0.693147180559945,-0.0431239523390815,0,0,0,1.83473356702247,5.03018203479311e-10,0.0366114132435679,5.03019683198436e-10,0,0,0,0.00624152747774205,0.00372611277951535
20.2,-0.0441983365694035,0.698134722070984,-0.0441983365698091,0,0,0,1.83994935894891,4.49363178611772e-10,0.0368401779847791,4.49356761869635e-10,0,0,0,0.00632203541750678,0.0037568398295242
20.4,-0.0452740528367041,0.703097511413114,-0.0452740528412118,0,0,0,1.84512939114473,3.95923847526514e-10,0.0370673743038794,3.95804517633325e-10,0,0,0,0.00640265112368628,0.00378710682972748
20.6,-0.0463509987265157,0.708035793053696,-0.0463509987289231,0,0,0,1.85027410984492,3.43432678129307e-10,0.0372930217709922,3.43373350586429e-10,0,0,0,0.00648337328462895,0.00381691657079548
20.8,-0.0474290713137755,0.712949807856125,-0.0474290713136344,0,0,0,1.85538396754243,2.90742464825744e-10,0.0375171402349267,2.90741958286489e-10,0,0,0,0.00656420065637871,0.003846272136117
21,-0.0485081671638009,0.717839793150317,-0.0485081671719053,0,0,0,1.86045942295623,2.39115536398993e-10,0.0377397498128686,2.38876099456498e-10,0,0,0,0.00664513205807743,0.00387517688878625
21.2,-0.0495881824364654,0.72270598280149,-0.0495881824471972,0,0,0,1.86550094065763,1.87623468844711e-10,0.037960870882309,1.87311097188392e-10,0,0,0,0.00672616636739001,0.00390363446019694
21.4,-0.0506690129005792,0.727548607277278,-0.0506690128960611,0,0,0,1.8705089909064,1.36606942771622e-10,0.0381805240678313,1.3671636565904e-10,0,0,0,0.00680730251613141,0.00393164873704289
21.6,-0.0517505539901162,0.732367893713227,-0.0517505539849694,0,0,0,1.87548404931231,8.72485798886213e-11,0.0383987302282317,8.73575673604465e-11,0,0,0,0.00688853948598279,0.00395922384902572
21.8,-0.0528327009494598,0.73716406597672,-0.0528327009503978,0,0,0,1.88042659639462,3.73292525363e-11,0.03861551044327,3.72686204813677e-11,0,0,0,0.00696987630434014,0.00398636415692163
22,-0.0539153488318284,0.741937344729377,-0.0539153488345613,0,0,0,1.88533711745909,-1.12156135073649e-11,0.0388308859943067,-1.13352296299274e-11,0,0,0,0.00705131204036538,0.00401307423853492
22.2,-0.0549983926513282,0.746687947487975,-0.0549983926519479,0,0,0,1.89021610193742,-5.99789991978517e-11,0.0390448783509935,-6.00393085942175e-11,0,0,0,0.00713284580109474,0.00403935887766787
22.4,-0.0560817274114221,0.751416088683921,-0.0560817274139365,0,0,0,1.89506404322148,-1.06991724507788e-10,0.0392575091497976,-1.07111663288917e-10,0,0,0,0.00721447672777754,0.00406522305003794
22.6,-0.0571652482800484,0.756121979721334,-0.0571652482756227,0,0,0,1.89988143798656,-1.54280886677238e-10,0.0394688001785923,-1.54220844428288e-10,0,0,0,0.00729620399230889,0.00409067191214174
22.8,-0.0582488505997163,0.76080582903376,-0.0582488505960004,0,0,0,1.90466878598582,-2.00233666453054e-10,0.039678773353745,-2.00173259912173e-10,0,0,0,0.00737802679386449,0.00411571078729508
23,-0.0593324300599554,0.765467842139572,-0.0593324300630714,0,0,0,1.90942658941024,-2.45481241237244e-10,0.0398874507026148,-2.45600267553825e-10,0,0,0,0.007459944355662,0.0041403451542744
23.2,-0.0604158827741137,0.770108221696074,-0.0604158827849628,0,0,0,1.91415535248969,-2.90819458792502e-10,0.0400948543421353,-2.9111787633318e-10,0,0,0,0.00754195592190094,0.00416458063459606
23.4,-0.0614991053543397,0.774727167552368,-0.0614991053588635,0,0,0,1.91885558113687,-3.33728137139055e-10,0.040301006456239,-3.33847947550647e-10,0,0,0,0.00762406075484721,0.00418842297958252
23.6,-0.0625819950901028,0.779324876800998,-0.0625819950804551,0,0,0,1.92352778211944,-3.78257324767928e-10,0.0405059292800348,-3.78018845392791e-10,0,0,0,0.00770625813211069,0.00421187806049056
23.8,-0.0636644499219128,0.78390154382841,-0.0636644499149222,0,0,0,1.92817246307772,-4.20553553787117e-10,0.040709645071518,-4.20375827897557e-10,0,0,0,0.00778854734402469,0.00423495185364756
24,-0.0647463686892255,0.78845736036427,-0.0647463686780017,0,0,0,1.93279013160972,-4.62405369203167e-10,0.0409121760969623,-4.62154526453817e-10,0,0,0,0.00787092769125821,0.00425765043150278
24.2,-0.0658276511179833,0.792992515529661,-0.0658276511118781,0,0,0,1.93738129505447,-5.02597265888971e-10,0.0411135446061655,-5.02479285610646e-10,0,0,0,0.00795339848252355,0.00427997994962451
24.4,-0.0669081980049543,0.797507195884188,-0.0669081980039701,0,0,0,1.94194645980996,-5.43980355552365e-10,0.0413137728151675,-5.43922263132601e-10,0,0,0,0.00803595903250424,0.0043019466369648
24.6,-0.0679879112075567,0.802001585472028,-0.0679879112037988,0,0,0,1.94648613122192,-5.82634657533831e-10,0.0415128828805456,-5.82517631353419e-10,0,0,0,0.00811860865982619,0.00432355678278442
24.8,-0.0690666938396765,0.806475865866949,-0.0690666938418849,0,0,0,1.95100081267832,-6.21052110780229e-10,0.0417108968862342,-6.21110995968621e-10,0,0,0,0.00820134668535383,0.00434481672889458
25,-0.070144450297079,0.810930216216329,-0.0701444503020085,0,0,0,1.95549100551034,-6.58601102473955e-10,0.0419078368190129,-6.58728507504924e-10,0,0,0,0.00828417243045711,0.00436573285732544
25.2,-0.0712210863656865,0.815364813284195,-0.0712210863585855,0,0,0,1.95995720840942,-6.95555455246244e-10,0.0421037245517734,-6.95380685325486e-10,0,0,0,0.00836708521553706,0.00438631158132266
25.4,-0.0722965092705733,0.819779831493312,-0.0722965092734605,0,0,0,1.96439991703617,-7.31731260653068e-10,0.042298581824786,-7.31848288568204e-10,0,0,0,0.00845008435865062,0.0044065593356105
25.6,-0.0733706278116546,0.824175442966349,-0.0733706277895331,0,0,0,1.96881962365986,-7.66910535077159e-10,0.0424924302273679,-7.66735744339719e-10,0,0,0,0.00853316917425989,0.00442648256690973
25.8,-0.0744433523498396,0.828551817566148,-0.074443352331593,0,0,0,1.973216816683,-8.01239024780798e-10,0.0426852911821941,-8.01238533854054e-10,0,0,0,0.008616338972164,0.0044460877256171
26,-0.0755145950442195,0.832909122935104,-0.075514594855077,0,0,0,1.9775919803629,-8.34466985094595e-10,0.0428771859275883,-8.34404345964601e-10,0,0,0,0.00869959305648691,0.00446538125672841
26.2,-0.0765842695273972,0.837247524533702,-0.0765842693467344,0,0,0,1.98194559435474,-8.67551469899142e-10,0.0430681355035583,-8.67607688817551e-10,0,0,0,0.00878293072487033,0.00448436959235631
26.4,-0.0776522914744407,0.841567185678219,-0.0776522912977796,0,0,0,1.98627813351815,-8.99348479369011e-10,0.0432581607348484,-8.99393939532422e-10,0,0,0,0.00886635126766828,0.00450305914309053
26.6,-0.0787185783309723,0.845868267577609,-0.0787185781585679,0,0,0,1.99059006744484,-9.30658633491177e-10,0.0434472822194477,-9.30658433997977e-10,0,0,0,0.00894985396739761,0.00452145629163167
26.8,-0.0797830494290952,0.85015092936961,-0.0797830492579774,0,0,0,1.99488186027785,-9.60876303870983e-10,0.0436355203135677,-9.60904905991655e-10,0,0,0,0.00903343809815716,0.00453956738503907
27,-0.080845626041686,0.854415328156068,-0.0808456258761132,0,0,0,1.99915397034867,-9.90491301824936e-10,0.0438228951206444,-9.9066051022223e-10,0,0,0,0.00911710292525344,0.00455739872865589
27.2,-0.0819062314185658,0.858661619037519,-0.08190623125278,0,0,0,2.00340684997818,-1.01945422242844e-09,0.0440094264790632,-1.01956589178276e-09,0,0,0,0.0092008477048393,0.00457495657955757
27.4,-0.0829647908127631,0.86288995514704,-0.0829647906423064,0,0,0,2.00764094520538,-1.04759499859608e-09,0.0441951339518965,-1.04759342346716e-09,0,0,0,0.00928467168369414,0.00459224714085451
27.6,-0.0840212315037178,0.867100487683383,-0.0840212313376775,0,0,0,2.01185669558391,-1.0742830999777e-09,0.0443800368169884,-1.07439524638098e-09,0,0,0,0.00936857409905719,0.00460927655616979
27.8,-0.0850754828613233,0.871293365943419,-0.0850754826951152,0,0,0,2.01605453389614,-1.10126130610511e-09,0.0445641540592915,-1.10134565356468e-09,0,0,0,0.00945255417861291,0.00462605090505518
28,-0.0861274762983054,0.8754687373539,-0.0861274761302864,0,0,0,2.02023488614989,-1.1266566082857e-09,0.0447475043599015,-1.12671083400684e-09,0,0,0,0.0095366111403535,0.00464257619711888
28.2,-0.0871771453490207,0.879626747502564,-0.0871771451774201,0,0,0,2.02439817119499,-1.15188575171288e-09,0.0449301060923825,-1.15188462414262e-09,0,0,0,0.00962074419280513,0.00465885836910355
28.4,-0.0882244256271127,0.883767540168595,-0.0882244254606455,0,0,0,2.02854480076203,-1.17586683792692e-09,0.0451119773132667,-1.17597703103156e-09,0,0,0,0.00970495253500854,0.00467490327966563
28.6,-0.0892692548819431,0.887891257352457,-0.0892692547097404,0,0,0,2.03267517921365,-1.19898570412336e-09,0.04529313575828,-1.19898361725101e-09,0,0,0,0.00978923535679382,0.00469071670647169
28.8,-0.0903115729657535,0.891998039305111,-0.0903115727910764,0,0,0,2.03678970344654,-1.22213333897392e-09,0.0454735988373193,-1.22202065827581e-09,0,0,0,0.00987359183900552,0.004706304342823
29,-0.0913513218347543,0.896088024556636,-0.0913513216579842,0,0,0,2.04088876289046,-1.24421656658158e-09,0.0456533836286639,-1.24407200166599e-09,0,0,0,0.00995802115369478,0.00472167179400944
29.2,-0.092388445558136,0.900161349944271,-0.0923884453892269,0,0,0,2.04497273931358,-1.26563191697737e-09,0.0458325068775563,-1.26563065756813e-09,0,0,0,0.0100425224645432,0.00473682457542417
29.4,-0.0934228903080986,0.904218150639886,-0.0934228901377453,0,0,0,2.04904200685107,-1.28569611033968e-09,0.0460109849918244,-1.28564021061039e-09,0,0,0,0.0101270949271339,0.00475176810953462
29.6,-0.0944546043343897,0.908258560176891,-0.0944546041776364,0,0,0,2.05309693186666,-1.3047482504136e-09,0.0461888340413856,-1.30496569279714e-09,0,0,0,0.0102117376894301,0.00476650772441626
29.8,-0.0954835379999648,0.912282710476616,-0.0954835378322091,0,0,0,2.05713787293409,-1.32485032319773e-09,0.0463660697565886,-1.32484933440535e-09,0,0,0,0.0102964498921856,0.00478104865185333
30,-0.0965096436553484,0.916290731874155,-0.0965096434921281,0,0,0,2.06116518096758,-1.34377040918177e-09,0.0465427075248867,-1.34387831418614e-09,0,0,0,0.0103812306692248,0.00479539602481813
30.2,-0.0975328757303135,0.920282753143693,-0.0975328755586463,0,0,0,2.06517919906211,-1.36116767857075e-09,0.0467187623931441,-1.36111214486812e-09,0,0,0,0.0104660791480663,0.00480955487719063
30.4,-0.0985531906590568,0.924258901523332,-0.0985531904915743,0,0,0,2.0691802624619,-1.37848868084212e-09,0.0468942490685553,-1.37848788633876e-09,0,0,0,0.0105509944504546,0.0048235301429554
30.6,-0.0995705468625059,0.928219302739429,-0.0995705467042942,0,0,0,2.07316869872936,-1.39530014972578e-09,0.0470691819170825,-1.39551281294614e-09,0,0,0,0.0106359756926857,0.00483732665446234
30.8,-0.100584904726638,0.932164081030445,-0.100584904559829,0,0,0,2.07714482771659,-1.41101001022159e-09,0.0472435749656687,-1.41100913939041e-09,0,0,0,0.0107210219861739,0.00485094914219164
31,-0.101596226566671,0.936093359170335,-0.101596226404523,0,0,0,2.08110896148961,-1.42745894271545e-09,0.0474174419059189,-1.42752580589711e-09,0,0,0,0.0108061324381129,0.00486440223511238
31.2,-0.102604476575695,0.940007258491471,-0.102604476414559,0,0,0,2.08506140467638,-1.44113262295908e-09,0.0475907960914763,-1.44123769862947e-09,0,0,0,0.0108913061516206,0.00487769045862944
31.4,-0.10360962086414,0.943905898907129,-0.103609620700816,0,0,0,2.08900245409126,-1.45564402198595e-09,0.0477636505477572,-1.45567060835794e-09,0,0,0,0.0109765422268153,0.00489081823734201
31.6,-0.104611627340238,0.947789398933526,-0.104611627165556,0,0,0,2.0929323992091,-1.46963293964908e-09,0.0479360179683646,-1.4694204013288e-09,0,0,0,0.011061839760818,0.00490378989268008
31.8,-0.105610465699997,0.951657875711446,-0.105610465537671,0,0,0,2.09685152204246,-1.48233152141852e-09,0.0481079107215299,-1.48241593306286e-09,0,0,0,0.0111471978485267,0.00491660964444379
32,-0.106606107450575,0.955511445027436,-0.106606107278709,0,0,0,2.10076009722024,-1.4950357514476e-09,0.0482793408540458,-1.49493037740478e-09,0,0,0,0.0112326155831462,0.00492928161140253
32.2,-0.107598525771488,0.959350221334602,-0.107598525614145,0,0,0,2.10465839214653,-1.50708526214238e-09,0.0484503200939242,-1.50729211750855e-09,0,0,0,0.0113180920566044,0.00494180981142934
32.4,-0.108587695584532,0.963174317773006,-0.108587695404903,0,0,0,2.10854666705945,-1.51920368646197e-09,0.0486208598553837,-1.5189526650361e-09,0,0,0,0.0114036263601091,0.00495419816256284
32.6,-0.109573593394135,0.966983846189673,-0.10957359321336,0,0,0,2.11242517516611,-1.53005021846786e-09,0.0487909712426166,-1.52978068060361e-09,0,0,0,0.0114892175845936,0.00496645048362486
32.8,-0.110556197359358,0.970778917158225,-0.110556197194698,0,0,0,2.11629416265987,-1.54081952405405e-09,0.0489606650560033,-1.54092178600296e-09,0,0,0,0.0115748648213404,0.00497857049580069
33,-0.111535487207451,0.974559639998131,-0.111535487038012,0,0,0,2.12015386896935,-1.55089724743207e-09,0.0491299517947884,-1.55089520739726e-09,0,0,0,0.011660567162245,0.00499056182290149
33.2,-0.112511444181023,0.978326122793608,-0.112511443995117,0,0,0,2.12400452675386,-1.56048082095017e-09,0.0492988416639929,-1.56008776036609e-09,0,0,0,0.0117463237004644,0.00500242799325949
33.4,-0.113484050993618,0.982078472412158,-0.11348405082157,0,0,0,2.12784636206866,-1.56932555492317e-09,0.0494673445788803,-1.56922352542721e-09,0,0,0,0.011832133530797,0.00501417244072227
33.6,-0.114453291856747,0.985816794522765,-0.11445329168947,0,0,0,2.13167959444106,-1.57941472400669e-09,0.0496354701710133,-1.57941367623371e-09,0,0,0,0.0119179957501969,0.0050257985062727
33.8,-0.115419152325784,0.989541193613748,-0.115419152166819,0,0,0,2.13550443719298,-1.58746070455518e-09,0.0498032277904048,-1.58765999999644e-09,0,0,0,0.0120039094578604,0.00503730943820628
34,-0.116381619376925,0.993251773010283,-0.116381619214663,0,0,0,2.13932109723555,-1.59582919448398e-09,0.0499706265165088,-1.59592821943888e-09,0,0,0,0.0120898737561952,0.00504870839565683
34.2,-0.117340681266468,0.996948634891609,-0.117340681095127,0,0,0,2.14312977551997,-1.60223130943327e-09,0.0501376751586673,-1.60213004321563e-09,0,0,0,0.0121758877506617,0.00505999844818728
34.4,-0.118296327571551,1.00063188030791,-0.118296327405383,0,0,0,2.14693066683402,-1.60985768465904e-09,0.0503043822670709,-1.60987322778139e-09,0,0,0,0.012261950550737,0.00507118257933633
34.6,-0.119248549097752,1.00430160919687,-0.119248548926181,0,0,0,2.1507239602824,-1.61741489992928e-09,0.0504707561327026,-1.61730166065022e-09,0,0,0,0.0123480612696549,0.00508226368607239
34.8,-0.120197337834383,1.00795792039998,-0.120197337669223,0,0,0,2.1545098392418,-1.623426504338e-09,0.0506368047959964,-1.62342463777554e-09,0,0,0,0.01243421902506,0.00509324458152917
35,-0.121142686978952,1.01160091167848,-0.121142686811359,0,0,0,2.15828848141108,-1.62971004052936e-09,0.0508025360540909,-1.62969086142661e-09,0,0,0,0.0125204229394967,0.00510412799723296
35.2,-0.122084590830089,1.01523067972906,-0.122084590655808,0,0,0,2.16206005908871,-1.63625005558665e-09,0.0509679574639352,-1.63605413591728e-09,0,0,0,0.0126066721404529,0.00511491658379968
35.4,-0.123023044762255,1.01884732019925,-0.123023044582768,0,0,0,2.16582473929952,-1.64148615880433e-09,0.051133076348332,-1.6411691311502e-09,0,0,0,0.0126929657606601,0.00512561291276088
35.6,-0.123958045216325,1.02245092770255,-0.123958045043882,0,0,0,2.16958268379376,-1.64636718147371e-09,0.0512978998037358,-1.64617441206216e-09,0,0,0,0.0127793029386346,0.00513621947904134
35.8,-0.124889589654554,1.02604159583327,-0.124889589484921,0,0,0,2.17333404928019,-1.65141718702633e-09,0.0514624347041665,-1.65132005985891e-09,0,0,0,0.012865682818748,0.00514673870202157
36,-0.12581767649149,1.02961941718116,-0.125817676330782,0,0,0,2.17707898757871,-1.65573944485575e-09,0.0516266877067741,-1.65583254399526e-09,0,0,0,0.0129521045514269,0.00515717292724262
36.2,-0.126742309149817,1.03318448334565,-0.126742308987971,0,0,0,2.18081762801791,-1.65996779169508e-09,0.0517906644848781,-1.66004497648142e-09,0,0,0,0.0130385673309152,0.00516752410881305
36.4,-0.127663492260171,1.03673688495002,-0.127663492108533,0,0,0,2.18455009371951,-1.6637219033e-09,0.0519543704382642,-1.66400455567373e-09,0,0,0,0.0131250703635816,0.00517779410136737
36.6,-0.128581222254358,1.04027671165515,-0.1285812220845,0,0,0,2.1882765429461,-1.6676027780882e-09,0.0521178125087257,-1.66750700747453e-09,0,0,0,0.0132116127784979,0.00518798541081559
36.8,-0.129495497742156,1.04380405217311,-0.129495497585815,0,0,0,2.19199712357044,-1.6714293560316e-09,0.0522809971828436,-1.67161498532131e-09,0,0,0,0.013298193722329,0.00519810036936829
37,-0.130406321535697,1.04731899428056,-0.130406321361312,0,0,0,2.19571196460038,-1.67433621481305e-09,0.0524439301158582,-1.67414928795018e-09,0,0,0,0.0133848123797453,0.00520814097871855
37.2,-0.131313697178803,1.05082162483176,-0.131313697017914,0,0,0,2.19942119075,-1.67749961491048e-09,0.0526066167813872,-1.67759241567755e-09,0,0,0,0.0134714679430177,0.00521810917787927
37.4,-0.132217628982687,1.05431202977153,-0.13221762882139,0,0,0,2.20312492277817,-1.67987237315037e-09,0.0527690624728805,-1.67995750297023e-09,0,0,0,0.0135581596116813,0.00522800684348709
37.6,-0.133118121958112,1.05779029414785,-0.133118121797117,0,0,0,2.20682327739728,-1.68279570486596e-09,0.052931272312328,-1.68288776664083e-09,0,0,0,0.0136448865931439,0.00523783579275122
37.8,-0.134015181781261,1.06125650212434,-0.134015181615197,0,0,0,2.21051636758344,-1.68487387930405e-09,0.0530932512519467,-1.68486295748504e-09,0,0,0,0.0137316481023661,0.00524759778387064
38,-0.134908814780925,1.06471073699243,-0.134908814615277,0,0,0,2.21420430253355,-1.686348140989e-09,0.0532550040818162,-1.68634667341294e-09,0,0,0,0.0138184433623355,0.00525729451861369
38.2,-0.135799027918375,1.0681530811834,-0.135799027753849,0,0,0,2.21788718781013,-1.68838977174235e-09,0.0534165354341542,-1.68841211498072e-09,0,0,0,0.0139052716040959,0.00526692764369131
38.4,-0.136685828726225,1.07158361628019,-0.1366858285637,0,0,0,2.22156512555208,-1.68976523398645e-09,0.0535778497863087,-1.68982906487147e-09,0,0,0,0.0139921320665919,0.00527649875168363
38.6,-0.137569225321892,1.07500242302898,-0.137569225156038,0,0,0,2.2252382144266,-1.69167394328817e-09,0.0537389514680958,-1.69167113650559e-09,0,0,0,0.0140790239971231,0.00528600938353455
38.8,-0.138449226333524,1.07840958135059,-0.138449226167693,0,0,0,2.22890654989832,-1.69248041276271e-09,0.0538998446634999,-1.69247902498393e-09,0,0,0,0.0141659466510107,0.00529546102903441
39,-0.139325840928216,1.08180517035173,-0.139325840757925,0,0,0,2.23257022416215,-1.69320535717277e-09,0.0540605334180723,-1.69311500583524e-09,0,0,0,0.0142528992920762,0.00530485512934976
39.2,-0.140199078749117,1.08518926833597,-0.140199078578745,0,0,0,2.23622932633847,-1.69425956597635e-09,0.0542210216416336,-1.6941687323857e-09,0,0,0,0.0143398811924581,0.00531419307788061
39.4,-0.141068949905503,1.08856195281461,-0.14106894973076,0,0,0,2.23988394258418,-1.69536202784815e-09,0.0543813131122888,-1.6951846870672e-09,0,0,0,0.0144268916326159,0.00532347622159735
39.6,-0.141935464932482,1.09192330051731,-0.141935464765754,0,0,0,2.24353415616815,-1.69570159649912e-09,0.0545414114809224,-1.69568594929337e-09,0,0,0,0.0145139299014104,0.00533270586255453
39.8,-0.14279863481047,1.0952733874026,-0.142798634640695,0,0,0,2.24718004752232,-1.69586420947776e-09,0.0547013202759821,-1.69578870737319e-09,0,0,0,0.014600995296239,0.00534188325951111
40,-0.143658470895936,1.09861228866811,-0.143658470725453,0,0,0,2.25082169437223,-1.69582662148948e-09,0.0548610429067307,-1.69573815059221e-09,0,0,0,0.0146880871229491,0.00535100962901407
40.2,-0.143766652874002,1.0952733874026,-0.143766652707597,0,0,0,2.24283363452265,-2.34487186612231e-11,0.0545106832570503,-2.34382339925343e-11,0,0,0,0.0146127522986274,0.0052619237659947
40.4,-0.143853804064055,1.09192330051731,-0.14385380389791,0,0,0,2.23494292886341,-1.40602633702525e-11,0.0541645968880614,-1.40518811864165e-11,0,0,0,0.0145371290761995,0.00517464044863241
40.6,-0.143920735992116,1.08856195281461,-0.143920735825917,0,0,0,2.22714496620851,-7.58479043461158e-12,0.0538225782330621,-7.57220328106989e-12,0,0,0,0.014461224067927,0.0050890796101825
40.8,-0.143968219911021,1.08518926833597,-0.143968219745592,0,0,0,2.21943537661915,-3.37966113428401e-12,0.0534844356252753,-3.37960562313278e-12,0,0,0,0.0143850438629978,0.00500516657197923
41,-0.14399697906613,1.08180517035173,-0.14399697890109,0,0,0,2.21181006089369,-1.02095762399834e-12,0.0531499892728441,-1.02580097194327e-12,0,0,0,0.0143085948832069,0.00492283130758432
41.2,-0.144004550699997,1.07840958135059,-0.144004550534865,0,0,0,2.20427901943043,4.21168579643749e-07,0.0528188354550594,4.21168579615994e-07,0,0,0,0.0142318441932474,0.00484192742000875
41.4,-0.144004550699997,1.07500242302898,-0.144004550534865,0,0,0,2.19678147174529,-4.73727770504417e-07,0.0524917828062866,-4.73727767597021e-07,0,0,0,0.0141549598897641,0.00476272508158198
41.6,-0.143977498738124,1.07158361628019,-0.143977498573142,0,0,0,2.18940237611465,-1.0259501581622e-12,0.0521671882184375,-1.02320582562321e-12,0,0,0,0.0140776970688341,0.00468465429962619
41.8,-0.143937758751145,1.0681530811834,-0.143937758586226,0,0,0,2.18207784737015,-2.38589009660117e-12,0.0518459343904222,-2.38154634901733e-12,0,0,0,0.0140002339778574,0.00460801091837644
42,-0.143882313223389,1.06471073699243,-0.143882313058758,0,0,0,2.17482045283021,-4.0437445059105e-12,0.0515276250692192,-4.04256489394683e-12,0,0,0,0.0139225318367341,0.00453265340233296
42.2,-0.143811666996424,1.06125650212434,-0.143811666831216,0,0,0,2.16762731970708,-5.77794409539756e-12,0.0512121342538923,-5.76184586154049e-12,0,0,0,0.0138445961461074,0.00445853310777919
42.4,-0.143726297557098,1.05779029414785,-0.143726297393224,0,0,0,2.16049572828022,-7.37230415603918e-12,0.0508993426571242,-7.38139757650025e-12,0,0,0,0.0137664322707311,0.00438560411170337
42.6,-0.143626657061081,1.05431202977153,-0.143626656896494,0,0,0,2.15342310053824,-8.82606140950593e-12,0.0505891372072504,-8.81736003655043e-12,0,0,0,0.0136880454449774,0.00431382302537768
42.8,-0.143513174175115,1.05082162483176,-0.143513174011076,0,0,0,2.14640698979795,-9.81642198083499e-12,0.0502814105921712,-9.81660933097039e-12,0,0,0,0.013609440778322,0.00424314882372929
43,-0.143386255791695,1.04731899428056,-0.143386255627268,0,0,0,2.13944507115402,-1.04643758935818e-11,0.0499760608417331,-1.04535928524552e-11,0,0,0,0.0135306232609108,0.0041735426892152
43.2,-0.143246288587738,1.04380405217311,-0.143246288423269,0,0,0,2.13253513275436,-1.04652016219564e-11,0.0496729909435223,-1.04508207643406e-11,0,0,0,0.0134515977689383,0.00410496786837588
43.4,-0.143093640479991,1.04027671165515,-0.143093640317054,0,0,0,2.12567506772835,-9.87020187803722e-12,0.0493721084903218,-9.88613010899364e-12,0,0,0,0.0133723690700993,0.0040373895403591
43.6,-0.142928661961859,1.03673688495002,-0.142928661797533,0,0,0,2.11886286679312,-8.62333121576242e-12,0.0490733253547761,-8.60665705371133e-12,0,0,0,0.0132929418288176,0.00397077469581613
43.8,-0.142751687337697,1.03318448334565,-0.142751687173436,0,0,0,2.11209661140558,-6.78108610929762e-12,0.048776557389793,-6.76321151860115e-12,0,0,0,0.013213320611452,0.00390509202557333
44,-0.142563035872149,1.02961941718116,-0.142563035707829,0,0,0,2.10537446747655,-3.86223344972514e-12,0.0484817241512243,-3.84047654788944e-12,0,0,0,0.0131335098912574,0.00384031181783657
44.2,-0.142363012864338,1.02604159583327,-0.142363012701137,0,0,0,2.09869467948022,-2.93622764990786e-13,0.04818874864259,-2.93907259640847e-13,0,0,0,0.0130535140534486,0.0037764058637509
44.4,-0.142151910629201,1.02245092770255,-0.142151910467092,0,0,0,2.0920555651022,4.17629125726293e-12,0.0478975570770517,4.15437129142049e-12,0,0,0,0.0129733373998034,0.00371334736965792
44.6,-0.141930009428481,1.01884732019925,-0.141930009263464,0,0,0,2.08545551019532,9.57733198303501e-12,0.047608078657967,9.62226825995671e-12,0,0,0,0.012892984153376,0.0036511108764003
44.8,-0.141697578325166,1.01523067972906,-0.141697578162296,0,0,0,2.07889296412176,1.58208376954683e-11,0.0473202453747392,1.58204699340914e-11,0,0,0,0.0128124584629801,0.00358967218452158
45,-0.141454875996336,1.01160091167848,-0.141454875833567,0,0,0,2.07236643545361,2.32114882869894e-11,0.0470339918125728,2.32111378728472e-11,0,0,0,0.0127317644074305,0.00352900828484131
45.2,-0.14120215148526,1.00795792039998,-0.141202151324885,0,0,0,2.06587448789234,3.11964690191679e-11,0.0467492549766169,3.11444862954868e-11,0,0,0,0.0126509059998786,0.00346909729448433
45.4,-0.140939644901655,1.00430160919687,-0.140939644737321,0,0,0,2.05941573658914,4.02570875940311e-11,0.0464659741262456,4.0296779801885e-11,0,0,0,0.0125698871916187,0.00340991839693742
45.6,-0.140667588081517,1.00063188030791,-0.140667587920267,0,0,0,2.05298884458123,5.04476235091422e-11,0.0461840906224657,5.04195001721497e-11,0,0,0,0.0124887118761575,0.00335145178702325
45.8,-0.140386205226799,0.996948634891609,-0.140386205063179,0,0,0,2.04659251954969,6.16455463064991e-11,0.04590354778413,6.16737615838359e-11,0,0,0,0.0124073838928659,0.00329367861935357
46,-0.14009571347193,0.993251773010283,-0.140095713308378,0,0,0,2.04022551074622,7.35640038468377e-11,0.0456242907541723,7.35929771983335e-11,0,0,0,0.0123259070306207,0.00323658096059334
46.2,-0.1397963234412,0.989541193613748,-0.139796323279021,0,0,0,2.03388660617033,8.64767320252202e-11,0.0453462663736776,8.64761613011966e-11,0,0,0,0.0122442850311414,0.00318014174479162
46.4,-0.139488239775958,0.985816794522765,-0.139488239611168,0,0,0,2.02757462985343,1.00145202894253e-10,0.0450694230650187,1.00207364975291e-10,0,0,0,0.0121625215924135,0.00312434473211387
46.6,-0.139171661607529,0.982078472412158,-0.139171661444831,0,0,0,2.02128843938757,1.15145653428739e-10,0.044793710721232,1.15161220837212e-10,0,0,0,0.0120806203717426,0.00306917447004205
46.8,-0.138846783051153,0.978326122793608,-0.138846782887821,0,0,0,2.01502692351368,1.3083105258882e-10,0.0445190806036155,1.30863576919271e-10,0,0,0,0.0119985849889655,0.00301461625761279
47,-0.138513793616132,0.974559639998131,-0.13851379345286,0,0,0,2.00878899997772,1.47563386856953e-10,0.0442454852438627,1.47596606811518e-10,0,0,0,0.0119164190291552,0.00296065611150711
47.2,-0.138172878641164,0.970778917158225,-0.138172878482483,0,0,0,2.0025736134016,1.65027873311185e-10,0.0439728783538122,1.64953948070257e-10,0,0,0,0.0118341260455602,0.00290728073490134
47.4,-0.137824219686227,0.966983846189673,-0.137824219523062,0,0,0,1.99637973338288,1.83478458121167e-10,0.0437012147391815,1.83513263612989e-10,0,0,0,0.011751709562103,0.00285447748792075
47.6,-0.137467994898032,0.963174317773006,-0.137467994735671,0,0,0,1.99020635260988,2.02795929354904e-10,0.0434304502198599,2.02813455266182e-10,0,0,0,0.011669173076063,0.00280223436044546
47.8,-0.137104379381309,0.959350221334602,-0.137104379220537,0,0,0,1.98405248517244,2.22971065222399e-10,0.0431605415537403,2.22952004080845e-10,0,0,0,0.0115865200603773,0.00275053994631042
48,-0.136733545533893,0.955511445027436,-0.136733545372433,0,0,0,1.97791716491547,2.43661710599974e-10,0.0428914463658697,2.43661034057818e-10,0,0,0,0.0115037539660046,0.0026993834194051
48.2,-0.136355663354044,0.951657875711446,-0.136355663192652,0,0,0,1.9717994439642,2.65769104640379e-10,0.0426231230807325,2.65768443710734e-10,0,0,0,0.0114208782239454,0.00264875451098017
48.4,-0.135970900780655,0.947789398933526,-0.135970900617209,0,0,0,1.96569839118145,2.88242537477279e-10,0.0423555308606816,2.88294136827072e-10,0,0,0,0.0113378962476309,0.00259864348902898
48.6,-0.135579423953339,0.943905898907129,-0.13557942379227,0,0,0,1.95961309091488,3.11149174134218e-10,0.0420886295452336,3.11143791287272e-10,0,0,0,0.011254811434582,0.002549041138134
48.8,-0.135181397504277,0.940007258491471,-0.135181397343085,0,0,0,1.95354264171954,3.35235464388184e-10,0.0418223795953488,3.35234669884832e-10,0,0,0,0.0111716271682839,0.00249993874098279
49,-0.134776984835445,0.936093359170335,-0.13477698467513,0,0,0,1.94748615507111,3.59629069579537e-10,0.0415567420421819,3.59607749828017e-10,0,0,0,0.0110883468202139,0.00245132806135822
49.2,-0.134366348354889,0.932164081030445,-0.134366348190495,0,0,0,1.94144275434864,3.84680273746163e-10,0.0412916784362877,3.8476322128389e-10,0,0,0,0.0110049737511766,0.00240320132739843
49.4,-0.133949649722223,0.928219302739429,-0.133949649558459,0,0,0,1.93541157371507,4.1046193353933e-10,0.0410271508021504,4.10530836755796e-10,0,0,0,0.0109215113130579,0.00235555121653085
49.6,-0.133527050090911,0.924258901523332,-0.133527049929947,0,0,0,1.9293917571349,4.36678122481271e-10,0.0407631215945815,4.36677265527874e-10,0,0,0,0.0108379628502709,0.00230837084103768
49.8,-0.133098710316244,0.920282753143693,-0.133098710157039,0,0,0,1.92338245746827,4.63475563483584e-10,0.0404995536576519,4.63430824965139e-10,0,0,0,0.0107543317010707,0.00226165373442903
50,-0.132664791172087,0.916290731874155,-0.132664791014366,0,0,0,1.91738283556369,4.90432115057837e-10,0.0402364101870413,4.90349974166526e-10,0,0,0,0.0106706211989677,0.00221539383885044
50.2,-0.132225453542304,0.912282710476616,-0.132225453380633,0,0,0,1.91139205949461,5.17842541417068e-10,0.0399736546937273,5.17863947904762e-10,0,0,0,0.0105868346737992,0.0021695854929083
50.4,-0.131780858613329,0.908258560176891,-0.131780858449956,0,0,0,1.90540930375378,5.45609396204738e-10,0.0397112509713546,5.45676734700629e-10,0,0,0,0.0105029754530152,0.00212422342055892
50.6,-0.131331168056415,0.904218150639886,-0.13133116789656,0,0,0,1.89943374857348,5.73760027336445e-10,0.0394491630649365,5.73736114173329e-10,0,0,0,0.0104190468626708,0.00207930272037271
50.8,-0.130876544208326,0.900161349944271,-0.13087654404764,0,0,0,1.89346457924899,6.01730545599088e-10,0.0391873552424007,6.01729608848411e-10,0,0,0,0.0103350522284927,0.00203481885558287
51,-0.130417150204352,0.896088024556636,-0.130417150045466,0,0,0,1.88750098558816,6.30334052315051e-10,0.0389257919672765,6.30286052516471e-10,0,0,0,0.010250994876651,0.00199076764442465
51.2,-0.129953150170876,0.89199803930511,-0.12995315000939,0,0,0,1.88154216126265,6.5881337538154e-10,0.0386644378753302,6.58836065564605e-10,0,0,0,0.0101668781349039,0.0019471452515269
51.4,-0.129484709337683,0.887891257352457,-0.129484709177096,0,0,0,1.87558730336456,6.87215367944916e-10,0.0384032577511392,6.8721485099732e-10,0,0,0,0.0100827053332132,0.0019039481792283
51.6,-0.129011994193048,0.883767540168595,-0.129011994029851,0,0,0,1.86963561192504,7.15645907117812e-10,0.0381422165076687,7.15717504359836e-10,0,0,0,0.00999847980455387,0.00186117325965528
51.8,-0.128535172606425,0.879626747502564,-0.128535172447702,0,0,0,1.86368628945056,7.4365653218722e-10,0.0378812791680383,7.4360671092899e-10,0,0,0,0.00991420488575272,0.00181881764731673
52,-0.128054413948672,0.8754687373539,-0.128054413788554,0,0,0,1.85773854061822,7.71952888764527e-10,0.0376204108476203,7.71942013783056e-10,0,0,0,0.00982988391794223,0.00177687881170619
52.2,-0.127569889213749,0.871293365943419,-0.127569889054202,0,0,0,1.85179157181751,7.9979607658931e-10,0.0373595767403498,7.99769996756572e-10,0,0,0,0.00974552024754916,0.00173535453094204
52.4,-0.127081771113293,0.867100487683383,-0.127081770956444,0,0,0,1.84584459093997,8.27310059001163e-10,0.037098742104108,8.27208785844635e-10,0,0,0,0.0096611172266431,0.00169424288506048
52.6,-0.126590234188051,0.86288995514704,-0.1265902340277,0,0,0,1.83989680706493,8.54159409868771e-10,0.0368378722495514,8.54156835539133e-10,0,0,0,0.0095766782136787,0.00165354225012258
52.8,-0.126095454878989,0.858661619037519,-0.126095454719508,0,0,0,1.83394743025255,8.8062285241719e-10,0.0365769325296578,8.80596356250818e-10,0,0,0,0.00949220657401625,0.00161325129240252
53,-0.125597611634472,0.854415328156068,-0.125597611471442,0,0,0,1.82799567133439,9.06674865394641e-10,0.0363158883313009,9.06750403928402e-10,0,0,0,0.00940770568054415,0.0015733689629984
53.2,-0.125096884973526,0.85015092936961,-0.125096884815792,0,0,0,1.82204074172839,9.31922280664188e-10,0.0360547050684409,9.31843919735331e-10,0,0,0,0.00932317891432709,0.00153389449275075
53.4,-0.12459345756668,0.845868267577609,-0.124593457407167,0,0,0,1.81608185336784,9.56482391553659e-10,0.0357933481757755,9.56455333336881e-10,0,0,0,0.00923862966502722,0.00149482738717519
53.6,-0.124087514286582,0.841567185678219,-0.124087514126797,0,0,0,1.81011821855716,9.80429990665721e-10,0.0355317831050761,9.80411033607576e-10,0,0,0,0.00915406133164036,0.0014561674219756
53.8,-0.123579242285121,0.837247524533702,-0.123579242123847,0,0,0,1.80414904990274,1.00319635411295e-09,0.0352699753223162,1.00322143127551e-09,0,0,0,0.00906947732312408,0.00141791463865345
54,-0.123068831026329,0.832909122935104,-0.123068830863307,0,0,0,1.7981735603192,1.02499546350554e-09,0.0350078903055316,1.02507299003241e-09,0,0,0,0.00898488105892244,0.00138006934020852
54.2,-0.122556472338578,0.828551817566148,-0.12255647217826,0,0,0,1.79219096300004,1.04624920706231e-09,0.0347454935446858,1.04624677498e-09,0,0,0,0.00890027596970951,0.00134263208725146
54.4,-0.122042360478973,0.824175442966349,-0.122042360319275,0,0,0,1.78620047137905,1.0657898261851e-09,0.0344827505431264,1.06576896960475e-09,0,0,0,0.00881566549827697,0.00130560369442172
54.6,-0.121526692127104,0.819779831493312,-0.121526691965889,0,0,0,1.78020129929302,1.08446055434308e-09,0.0342196268180454,1.08448577722242e-09,0,0,0,0.00873105309997637,0.00126898522649847
54.8,-0.121009666450299,0.815364813284195,-0.121009666289964,0,0,0,1.77419266092968,1.10176781066562e-09,0.0339560879048417,1.10176651829663e-09,0,0,0,0.00864644224389738,0.00123277799539395
55,-0.12049148511522,0.810930216216329,-0.120491484955759,0,0,0,1.76817377099119,1.11777403999369e-09,0.0336920993601537,1.11774597910674e-09,0,0,0,0.00856183641356958,0.00119698355677969
55.2,-0.11997235231237,0.806475865866948,-0.119972352152906,0,0,0,1.76214384478132,1.13258604751698e-09,0.0334276267669648,1.13255805428425e-09,0,0,0,0.00847723910801649,0.00116160370717418
55.4,-0.119452474780924,0.802001585472027,-0.119452474621457,0,0,0,1.75610209831242,1.14573626974757e-09,0.033162635740538,1.14570824875926e-09,0,0,0,0.00839265384289392,0.00112664048120339
55.6,-0.118932061811471,0.797507195884188,-0.118932061650301,0,0,0,1.75004774850363,1.15754479612651e-09,0.0328970919342542,1.15757037635889e-09,0,0,0,0.00830808415151904,0.00109209614884006
55.8,-0.118411325271787,0.792992515529661,-0.118411325108092,0,0,0,1.74398001328679,1.16761894077e-09,0.0326309610474146,1.16772505380502e-09,0,0,0,0.00822353358630537,0.00105797321310763
56,-0.117890479598312,0.78845736036427,-0.117890479439684,0,0,0,1.73789811183824,1.17646565059304e-09,0.0323642088323491,1.17641024525994e-09,0,0,0,0.0081390057200009,0.00102427440766141
56.2,-0.117369741838102,0.783901543828409,-0.11736974167696,0,0,0,1.73180126470245,1.1831790772826e-09,0.0320968011034661,1.18320444934816e-09,0,0,0,0.00805450414738224,0.000991002694855358
56.4,-0.116849331605625,0.779324876800998,-0.11684933144366,0,0,0,1.72568869407952,1.18865133187651e-09,0.0318287037449726,1.18870371879076e-09,0,0,0,0.00797003248665832,0.000958161263591779
56.6,-0.116329471135568,0.774727167552368,-0.116329470974436,0,0,0,1.71955962392618,1.19207656766596e-09,0.0315598827212239,1.19210197095654e-09,0,0,0,0.00788559438155005,0.000925753527835156
56.8,-0.115810385255736,0.770108221696074,-0.115810385095421,0,0,0,1.71341328026723,1.19376241357327e-09,0.0312903040849976,1.19376091650691e-09,0,0,0,0.00780119350296206,0.000893783124795341
57,-0.115292301403736,0.765467842139571,-0.115292301245028,0,0,0,1.70724889136641,1.19387275412941e-09,0.0310199339876403,1.19381757431036e-09,0,0,0,0.00771683355121074,0.000862253913649942
57.2,-0.114775449638901,0.76080582903376,-0.114775449479059,0,0,0,1.70106568793834,1.19206112515757e-09,0.030748738688871,1.19204353159208e-09,0,0,0,0.00763251825831445,0.000831169974349214
57.4,-0.114260062636381,0.756121979721334,-0.114260062476052,0,0,0,1.69486290339583,1.18837162853269e-09,0.0304766845661994,1.18837032228591e-09,0,0,0,0.0075482513903672,0.000800535606526433
57.6,-0.113746375704511,0.751416088683921,-0.113746375543405,0,0,0,1.6886397740614,1.18282574880502e-09,0.0302037381246564,1.18285085545788e-09,0,0,0,0.0074640367501915,0.000770355328679397
57.8,-0.113234626791995,0.746687947487975,-0.11323462663166,0,0,0,1.68239553938808,1.1756795380985e-09,0.0299298660062034,1.17567811735997e-09,0,0,0,0.00737987818015185,0.000740633877516552
58,-0.112725056513691,0.741937344729377,-0.112725056353353,0,0,0,1.67612944214722,1.16669912272882e-09,0.0296550349991804,1.16669766903055e-09,0,0,0,0.00729577956524572,0.000711376207561558
58.2,-0.112217908161855,0.73716406597672,-0.112217908000146,0,0,0,1.66984072865021,1.15581817554389e-09,0.0293792120469155,1.1558646557247e-09,0,0,0,0.00721174483629615,0.000682587490871025
58.4,-0.111713427733685,0.732367893713227,-0.111713427571568,0,0,0,1.66352864892988,1.14289368073617e-09,0.0291023642562158,1.14295487484151e-09,0,0,0,0.00712777797344839,0.000654273117029743
58.6,-0.111211863955056,0.727548607277278,-0.111211863795434,0,0,0,1.65719245694934,1.12848555673672e-09,0.0288244589048542,1.12845809259465e-09,0,0,0,0.00704388300979353,0.000626438693282505
58.8,-0.110713468337586,0.72270598280149,-0.110713468175836,0,0,0,1.65083141071718,1.11235423129463e-09,0.0285454634492982,1.11240299610627e-09,0,0,0,0.00696006403544433,0.000599090045052164
59,-0.110218495205234,0.717839793150317,-0.110218495046296,0,0,0,1.64444477245349,1.09446882633202e-09,0.0282653455309252,1.09441584267289e-09,0,0,0,0.00687632520168288,0.000572233216548595
59.2,-0.109727201761798,0.712949807856125,-0.109727201600741,0,0,0,1.63803180873356,1.0747969111935e-09,0.0279840729814362,1.07482091629696e-09,0,0,0,0.00679267072537972,0.000545874471628249
59.4,-0.109239848137305,0.708035793053696,-0.109239847978315,0,0,0,1.63159179058742,1.053813113161e-09,0.0277016138275901,1.05376088063713e-09,0,0,0,0.00670910489374572,0.000520020294946726
59.6,-0.108756697485833,0.703097511413114,-0.108756697326141,0,0,0,1.62512399356193,1.03129672683611e-09,0.0274179362950596,1.03127009709603e-09,0,0,0,0.00662563206940252,0.000494677393389407
59.8,-0.108278016053829,0.698134722070984,-0.108278015894787,0,0,0,1.61862769778963,1.00715178211197e-09,0.0271330088108009,1.00710042041929e-09,0,0,0,0.00654225669566156,0.000469852697704596
60,-0.107804073280508,0.693147180559945,-0.107804073120139,0,0,0,1.6121021880395,9.81660091756154e-10,0.0268468000040938,9.81658514892514e-10,0,0,0,0.00645898330208245,0.000445553364394781
60.2,-0.107335141911667,0.688134638736401,-0.107335141751915,0,0,0,1.60554675368425,9.54874212685808e-10,0.026559278706868,9.5484902103149e-10,0,0,0,0.00637581651048756,0.000421786777982192
60.4,-0.106871498129463,0.683096844706444,-0.106871497970107,0,0,0,1.59896068867658,9.26615235929962e-10,0.0262704139521649,9.26574528908874e-10,0,0,0,0.00629276104119768,0.000398560553489602
60.6,-0.106413421679934,0.678033542749897,-0.106413421518335,0,0,0,1.59234329151764,8.97554445697391e-10,0.0259801749708086,8.9760068822109e-10,0,0,0,0.00620982171954121,0.000375882539180985
60.8,-0.105961196050401,0.672944473242426,-0.105961195889666,0,0,0,1.58569386507965,8.67337635740428e-10,0.0256885311877055,8.67350411978829e-10,0,0,0,0.00612700348300265,0.00035376081978442
61,-0.105515108634593,0.667829372575655,-0.105515108473637,0,0,0,1.57901171652967,8.36029070624966e-10,0.0253954522149115,8.36050830996249e-10,0,0,0,0.0060443113883793,0.000332203719808314
61.2,-0.105075450927486,0.662687973075237,-0.105075450766024,0,0,0,1.57229615712682,8.03829959192259e-10,0.0251009078438802,8.03872258689498e-10,0,0,0,0.00596175061954674,0.000311219807324225
61.4,-0.104642518743025,0.657520002916794,-0.104642518582663,0,0,0,1.56554650200016,7.71070094926496e-10,0.0248048680355882,7.71068634289329e-10,0,0,0,0.00587932649556687,0.000290817898049296
61.6,-0.104216612460427,0.65232518603969,-0.104216612301158,0,0,0,1.5587620698626,7.37655707350182e-10,0.0245073029089081,7.37609924528204e-10,0,0,0,0.00579704447926592,0.000271007059802568
61.8,-0.103798037278373,0.647103242058539,-0.103798037119613,0,0,0,1.55194218271304,7.03661497125641e-10,0.0242081827265376,7.03594644352323e-10,0,0,0,0.00571491018616293,0.000251796617270553
62,-0.103387103502202,0.641853886172395,-0.103387103342375,0,0,0,1.54508616547384,6.69381930093471e-10,0.0239074778789414,6.693590473561e-10,0,0,0,0.00563292939390019,0.000233196157167059
62.2,-0.102984126865581,0.636576829071551,-0.102984126706251,0,0,0,1.53819334554416,6.34608383204283e-10,0.0236051588663936,6.34564843379759e-10,0,0,0,0.00555110805224336,0.000215215533814916
62.4,-0.102589428862352,0.631271776841858,-0.102589428702025,0,0,0,1.53126305237946,5.99798564114573e-10,0.0233011962777672,5.99797171998984e-10,0,0,0,0.00546945229338719,0.000197864875023853
62.6,-0.10220333713106,0.625938430866495,-0.102203336971455,0,0,0,1.52429461691101,5.64884589625281e-10,0.0229955607679794,5.64852950003802e-10,0,0,0,0.00538796844306658,0.000181154588504281
62.8,-0.101826185851949,0.62057648772511,-0.10182618569256,0,0,0,1.5172873710056,5.30308316357142e-10,0.0226882230317296,5.30267631020098e-10,0,0,0,0.00530666303198299,0.000165095368587248
63,-0.101458316202078,0.615185639090233,-0.101458316042672,0,0,0,1.51024064676191,4.95709346834405e-10,0.0223791537755983,4.95669622534167e-10,0,0,0,0.00522554280809502,0.000149698203498771
63.2,-0.10110007681656,0.609765571620894,-0.101100076657778,0,0,0,1.50315377585177,4.6145020356908e-10,0.0220683236860251,4.61383450542363e-10,0,0,0,0.00514461474926808,0.000134974382973879
63.4,-0.100751824322341,0.60431596685333,-0.100751824163385,0,0,0,1.49602608869519,4.27482532011636e-10,0.021755703395265,4.27423570495411e-10,0,0,0,0.00506388607685793,0.000120935506453816
63.6,-0.100413923889266,0.598836501088704,-0.100413923729184,0,0,0,1.48885691363055,3.94276411866401e-10,0.0214412634432914,3.94268008865883e-10,0,0,0,0.00498336426984896,0.00010759349171729
63.8,-0.100086749853104,0.593326845277734,-0.100086749693827,0,0,0,1.4816455759334,3.61766406761777e-10,0.0211249742369501,3.61722525196728e-10,0,0,0,0.00490305707996464,9.49605841093267e-05
64,-0.0997706863724388,0.587786664902119,-0.0997706862122347,0,0,0,1.47439139681849,3.29974765393704e-10,0.0208068060045105,3.29973627415103e-10,0,0,0,0.00482297254744768,8.30493662705148e-05
64.2,-0.0994661281417283,0.582215619852664,-0.0994661279806563,0,0,0,1.46709369231514,2.9927611170516e-10,0.02048672874635,2.99315885445017e-10,0,0,0,0.00474311901784139,7.18727685000375e-05
64.4,-0.0991734811877583,0.576613364303994,-0.0991734810271077,0,0,0,1.45975177200272,2.6935146300866e-10,0.0201647121813146,2.69373212971602e-10,0,0,0,0.00466350515986278,6.14440797904106e-05
64.6,-0.0988931637035116,0.570979546585738,-0.0988931635416628,0,0,0,1.45236493771896,2.40775269513827e-10,0.0198407256867236,2.40854552448211e-10,0,0,0,0.00458413998413518,5.17769595058269e-05
64.8,-0.0986256070000793,0.56531380905006,-0.0986256068383513,0,0,0,1.4449324819977,2.13374092700169e-10,0.0195147382335954,2.13449721439551e-10,0,0,0,0.00450503286348058,4.28854499319985e-05
65,-0.0983712565238651,0.559615787935423,-0.0983712563640627,0,0,0,1.43745368644839,1.87198563941782e-10,0.0191867183132435,1.87184386046813e-10,0,0,0,0.00442619355429824,3.47839896310944e-05
65.2,-0.0981305729965016,0.553885113226438,-0.0981305728359324,0,0,0,1.42992781988646,1.62554537538884e-10,0.0188566338550868,1.62578634582689e-10,0,0,0,0.0043476322196124,2.74874278356161e-05
65.4,-0.0979040336985372,0.548121408509687,-0.0979040335388803,0,0,0,1.42235413615519,1.39446357239059e-10,0.0185244521328924,1.39427833861783e-10,0,0,0,0.00426935945404835,2.10110400433439e-05
65.6,-0.0976921339286205,0.542324290825362,-0.097692133768968,0,0,0,1.41473187163312,1.17933702734052e-10,0.0181901396539787,1.17916404938911e-10,0,0,0,0.00419138631087189,1.53705450245442e-05
65.8,-0.0974953887146473,0.536493370514568,-0.097495388555,0,0,0,1.40706024215315,9.80103775916064e-11,0.0178536620248326,9.79943409404327e-11,0,0,0,0.0041137243319576,1.05821236739532e-05
66,-0.0973143349022604,0.53062825106217,-0.09731433474178,0,0,0,1.39933843907311,7.9806297854923e-11,0.0175149837781066,7.98336327600957e-11,0,0,0,0.00403638558156089,6.66244029315829e-06
66.2,-0.0971495304146359,0.524728528934982,-0.0971495302551538,0,0,0,1.39156563342838,6.34702299398548e-11,0.01717406855525,6.34483758935045e-11,0,0,0,0.00395938266008888,3.62867480814525e-06
66.4,-0.0970015658621167,0.518793793415167,-0.0970015657024405,0,0,0,1.38374094589032,4.88929530542692e-11,0.0168308777889733,4.88832516132298e-11,0,0,0,0.00388272881161529,1.49852942987411e-06
66.6,-0.0968710695055084,0.512823626428664,-0.0968710693451461,0,0,0,1.37586343611722,1.55046892859334e-10,0.0164853699979811,1.55073374280557e-10,0,0,0,0.00380643798311297,2.9028605760092e-07
66.8,-0.0967587288310638,0.506817602368452,-0.0967587286724015,0,0,0,1.36793204719698,1.10307568634838e-10,0.0161374993695047,1.1024732342324e-10,0,0,0,0.00373052501004814,2.28896034278137e-08
67,-0.0966651463874348,0.500775287912489,-0.0966651462287844,0,0,0,1.35994600301767,7.33929653162768e-11,0.0157872315456279,7.33340168104779e-11,0,0,0,0.0036550045615091,7.15951387012217e-07
67.2,-0.0966651463874348,0.494696241836107,-0.0966651462287844,0,0,0,1.35170390602968,-5.49629712217215e-06,0.0154367259127618,-5.49629717775356e-06,0,0,0,0.00358044959436106,2.36373970185567e-06
67.4,-0.0965610849653089,0.488580014818671,-0.0965610848062815,0,0,0,1.34374144323317,-1.81675105461691e-06,0.0150801332023459,-1.81675108460767e-06,0,0,0,0.00350538611183207,5.05079929825506e-06
67.6,-0.0965610849653089,0.482426149244293,-0.0965610848062815,0,0,0,1.33549763069799,-4.29006788257077e-06,0.014723506218206,-4.29006790940174e-06,0,0,0,0.00343139071465405,8.71931690337453e-06
67.8,-0.0965610849653089,0.476234178996372,-0.0965610848062815,0,0,0,1.32725381816282,-5.19960117346084e-06,0.0143637516669897,-5.19960119485605e-06,0,0,0,0.00335769295355686,1.34358862379078e-05
68,-0.0965610849653089,0.470003629245735,-0.0965610848062815,0,0,0,1.31901000562765,-4.52446044287361e-06,0.0140008277677329,-4.52446046140045e-06,0,0,0,0.00328430463936684,1.92319642310452e-05
68.2,-0.0965610849653089,0.46373401623214,-0.0965610848062815,0,0,0,1.31076619309248,-2.24274644403458e-06,0.0136346907219375,-2.24274645749256e-06,0,0,0,0.00321123802939804,2.61398178247392e-05
68.4,-0.0965610849653089,0.457424847038875,-0.0965610848062815,0,0,0,1.3025223805573,1.66844310638559e-06,0.0132652947250408,1.66844309610215e-06,0,0,0,0.00313850584592959,3.41925685302198e-05
68.6,-0.0966633289225011,0.451075619360217,-0.0966633287638232,0,0,0,1.29401393075515,5.65621386533488e-11,0.0128954508898226,5.65363129576002e-11,0,0,0,0.00306690187968906,4.32788425032195e-05
68.8,-0.0967670932437227,0.444685821261446,-0.0967670930838679,0,0,0,1.28550499701823,5.41888096894372e-11,0.0125222490607971,5.42336045863956e-11,0,0,0,0.00299567554500606,5.35454202857037e-05
69,-0.0968967024334473,0.438254930931155,-0.0968967022746743,0,0,0,1.2769335328233,7.82686623845841e-11,0.0121463045931052,7.82561047213415e-11,0,0,0,0.00292502841938116,6.49856872835575e-05
69.2,-0.0970531021808503,0.431782416425538,-0.0970531020218902,0,0,0,1.26829846679307,1.04912420764713e-10,0.0117675705437179,1.04913812012941e-10,0,0,0,0.00285498494881568,7.7623239311356e-05
69.4,-0.0972372895089678,0.425267735404344,-0.0972372893503088,0,0,0,1.2595986727606,1.32900457132379e-10,0.0113859975214871,1.32892353371661e-10,0,0,0,0.00278557087658742,9.14821683939244e-05
69.6,-0.0974503179833857,0.418710334858185,-0.0974503178254354,0,0,0,1.25083296207604,4.28083150524894e-11,0.0110015336310841,4.27627551424781e-11,0,0,0,0.00271681334199853,0.000106587076750409
69.8,-0.0976932944879508,0.412109650826833,-0.0976932943294885,0,0,0,1.24200009749465,4.94940299682056e-11,0.0106141241771362,4.94852531347789e-11,0,0,0,0.00264874091837225,0.000122963108793142
70,-0.0979673922535888,0.405465108108164,-0.0979673920963398,0,0,0,1.23309876673278,5.52544620301132e-11,0.0102237117984648,5.51803702557307e-11,0,0,0,0.00258138378335782,0.000140635949195252
70.2,-0.0982738487419319,0.398776119957368,-0.0982738485825917,0,0,0,1.2241275946263,5.95485119547767e-11,0.00983023618114874,5.96122881960093e-11,0,0,0,0.00251477377727999,0.000159631852602882
70.4,-0.0986139711384785,0.392042087776023,-0.0986139709794926,0,0,0,1.21508513665431,6.20644798575432e-11,0.00943363396947941,6.21142083080672e-11,0,0,0,0.00244894452757939,0.000179977657962557
70.6,-0.0989891407146781,0.385262400790645,-0.098989140556165,0,0,0,1.20596987596129,6.14681148862484e-11,0.00903383863669881,6.14952980031169e-11,0,0,0,0.00238393157175745,0.000201700805346134
70.8,-0.0994008174079731,0.378436435720245,-0.0994008172491292,0,0,0,1.19678022044049,5.74760859566037e-11,0.00863078035351583,5.75280062302397e-11,0,0,0,0.00231977249034437,0.000224829352468005
71,-0.0998505447496673,0.371563556432483,-0.0998505445917825,0,0,0,1.18751449965872,4.86685830525246e-11,0.00822438585769802,4.86646539038516e-11,0,0,0,0.00225650705165534,0.000249391990525549
71.2,-0.100339955025524,0.364643113587909,-0.100339954872437,0,0,0,1.1781709619511,3.46612244114808e-11,0.00781457832215964,3.43543648390066e-11,0,0,0,0.00219417736838591,0.0002754180596154
71.4,-0.100870774827482,0.357674444271816,-0.100870774671025,0,0,0,1.16874777137417,1.33002649692349e-11,0.00740127722595331,1.32174024329579e-11,0,0,0,0.00213282806837213,0.000302937563178853
71.6,-0.101444830848822,0.350656871613169,-0.101444830691986,0,0,0,1.15924300485496,-1.63322276709732e-11,0.00698439822564659,-1.63756304523421e-11,0,0,0,0.00207250647977139,0.000331981181728832
71.8,-0.102064056107407,0.343589704390077,-0.102064055950407,0,0,0,1.14965464931631,-5.586647854397e-11,0.00656385303076823,-5.58882926916804e-11,0,0,0,0.00201326283298742,0.000362580285344982
72,-0.102730496513376,0.336472236621213,-0.102730496357409,0,0,0,1.13998059889728,-1.07861455444364e-10,0.00613954928344337,-1.07947284791465e-10,0,0,0,0.0019551504806797,0.000394766944835522
72.2,-0.103446317805943,0.3293037471426,-0.103446317650154,0,0,0,1.13021865237898,-1.74615494806518e-10,0.00571139044266164,-1.74703976112134e-10,0,0,0,0.0018982261373804,0.000428573941454243
72.4,-0.104213812916918,0.322083499169113,-0.104213812759953,0,0,0,1.12036651072319,-2.57835450039046e-10,0.00527927567598579,-2.57831388184027e-10,0,0,0,0.00184255014120629,0.000464034774697278
72.6,-0.105035409833427,0.314810739840034,-0.105035409670883,0,0,0,1.11042177467483,-3.62271456539817e-10,0.00484309976136602,-3.61856652064327e-10,0,0,0,0.00178818674029533,0.000501183667650673
72.8,-0.105913679782391,0.307484699747961,-0.105913679624445,0,0,0,1.10038194288439,-4.90787798856224e-10,0.00440275299638686,-4.90689633890484e-10,0,0,0,0.00173520440486616,0.000540055570282113
73,-0.106851346016795,0.300104592450338,-0.106851345862509,0,0,0,1.09024441011756,-6.47239273461608e-10,0.00395812112239214,-6.4739667793301e-10,0,0,0,0.00168367616954254,0.000580686159385238
73.2,-0.10785129308842,0.29266961396282,-0.107851292937025,0,0,0,1.0800064657647,-8.37733774711191e-10,0.00350908526427426,-8.38100737681619e-10,0,0,0,0.00163368000849456,0.000623111834914519
73.4,-0.108916576577738,0.285178942233662,-0.108916576427076,0,0,0,1.06966529296871,-1.06789614781264e-09,0.00305552188581823,-1.0683144620674e-09,0,0,0,0.00158529924576398,0.000667369712725001
73.6,-0.110050433445004,0.27763173659828,-0.11005043329325,0,0,0,1.05921796806046,-1.34432306822876e-09,0.0025973027681089,-1.34465413890311e-09,0,0,0,0.00153862300618687,0.000713497612292111
73.8,-0.111256292953892,0.27002713721306,-0.111256292797262,0,0,0,1.04866146056756,-1.67605484330778e-09,0.00213429501254798,-1.67600007375084e-09,0,0,0,0.00149374671045824,0.000761534039067443
74,-0.112537788117833,0.262364264467491,-0.112537787964521,0,0,0,1.03799263400595,-2.0718407553813e-09,0.00166636107137827,-2.0720365432117e-09,0,0,0,0.00145077261853358,0.00081151816095466
74.2,-0.113898767823462,0.254642218373581,-0.113898767670739,0,0,0,1.02720824734571,-2.54195382294207e-09,0.00119335881273402,-2.54219732130591e-09,0,0,0,0.00140981042758188,0.000863489777547231
74.4,-0.115343309621145,0.246860077931525,-0.115343309466503,0,0,0,1.0163049572006,-3.10183446915429e-09,0.00071514162656714,-3.10191416235078e-09,0,0,0,0.00137097793078137,0.000917489280850372
74.6,-0.116875732971521,0.2390169004705,-0.116875732813912,0,0,0,1.00527932144886,-3.76617352826044e-09,0.000231558570923604,-3.76600298889656e-09,0,0,0,0.00133440174069804,0.00097355760788273
74.8,-0.118500613271331,0.231111720963387,-0.11850061311686,0,0,0,0.994127803714842,-4.55141885680568e-09,-0.000257545426152605,-4.55149557538508e-09,0,0,0,0.0013002180879102,0.00103173618205471
75,-0.120222796554164,0.22314355131421,-0.120222796391321,0,0,0,0.98284677915379,-5.4814272928581e-09,-0.000752329304104512,-5.48078295671117e-09,0,0,0,0.00126857370175203,0.00109206684251717
75.2,-0.122047414597153,0.215111379616945,-0.122047414447249,0,0,0,0.971432542098317,-6.58050445422531e-09,-0.0012529555421155,-6.58094787426558e-09,0,0,0,0.00123962678009856,0.00115459176104048
75.4,-0.123979900731286,0.207014169384326,-0.123979900576499,0,0,0,0.959881315430001,-7.87668496182378e-09,-0.00175958975185695,-7.87669825414242e-09,0,0,0,0.0012135480597331,0.00121935334379505
75.6,-0.126026006258405,0.198850858745165,-0.126026006110025,0,0,0,0.948189261592314,-9.40557030903229e-09,-0.00227240017485705,-9.40613372726797e-09,0,0,0,0.00119052200017148,0.0012863941149806
75.8,-0.128191817161575,0.19062035960865,-0.128191817004975,0,0,0,0.93635249651629,-1.12095924355944e-08,-0.00279155708379533,-1.12094077855561e-08,0,0,0,0.00117074808725242,0.00135575658347285
76,-0.130483771177973,0.182321556793955,-0.130483771025329,0,0,0,0.924367105970786,-1.33343264581073e-08,-0.00331723206330495,-1.33344899007175e-08,0,0,0,0.00115444227390234,0.00142748308784226
76.2,-0.132908675258179,0.173953307123438,-0.13290867510204,0,0,0,0.912229164839105,-1.58373024742274e-08,-0.00384959715572432,-1.58371300496528e-08,0,0,0,0.00114183857163876,0.00150161561784752
76.4,-0.135473722913402,0.165514438477573,-0.135473722756482,0,0,0,0.899934759983667,-1.87851930248152e-08,-0.00438882385698063,-1.87849427081208e-08,0,0,0,0.00113319080659304,0.00157819561091736
76.6,-0.138186511430956,0.157003748809665,-0.138186511277768,0,0,0,0.88748001703846,-2.22555705735143e-08,-0.00493508194146713,-2.22556554682792e-08,0,0,0,0.00112877455718621,0.00165726372091613
76.8,-0.141055058677136,0.148420005118273,-0.141055058524512,0,0,0,0.874861131494362,-2.63402256731309e-08,-0.00548853809207985,-2.63403517389554e-08,0,0,0,0.00112888929211086,0.00173885955622122
77,-0.144087819159364,0.139761942375159,-0.144087819016718,0,0,0,0.862074404601081,-3.11509851559644e-08,-0.00604935431111662,-3.11520948078313e-08,0,0,0,0.00113386072778881,0.00182302138463264
77.2,-0.14729369851138,0.131028262406404,-0.14729369835945,0,0,0,0.849116285480146,-3.68104081656211e-08,-0.00661768609783939,-3.68105932411003e-08,0,0,0,0.00114404341882181,0.00190978580639302
77.4,-0.150682066805114,0.122217632724249,-0.150682066655981,0,0,0,0.835983418238702,-4.34684525926071e-08,-0.00719368033869254,-4.3468905404874e-08,0,0,0,0.00115982361576986,0.00199918738573453
77.6,-0.154262769097681,0.113328685307003,-0.154262768949938,0,0,0,0.822672696740294,-5.13053707196405e-08,-0.00777747290961771,-5.13059822755853e-08,0,0,0,0.00118162239612913,0.00209125824794564
77.8,-0.158046132627191,0.104360015324243,-0.158046132473496,0,0,0,0.809181327045124,-6.0521760590973e-08,-0.00836918595231111,-6.05217291764319e-08,0,0,0,0.0012098990930855,0.0021860276390636
78,-0.162042970615225,0.0953101798043247,-0.162042970469346,0,0,0,0.79550689695448,-7.13622734750327e-08,-0.00896892477422808,-7.13630749476363e-08,0,0,0,0.00124515505292088,0.00228352144248513
78.2,-0.16626458024602,0.0861776962410522,-0.166264580103673,0,0,0,0.781647455616271,-8.41074930032354e-08,-0.00957677438049647,-8.41086808863606e-08,0,0,0,0.00128793771858104,0.00238376166552931
78.4,-0.17072273486939,0.076961041136128,-0.170722734714217,0,0,0,0.767601601523166,-9.90909119796997e-08,-0.0101927955756303,-9.90906516857432e-08,0,0,0,0.00133884507399688,0.00248676588881017
78.6,-0.175429668006579,0.0676586484738151,-0.175429667844932,0,0,0,0.753368581122599,-1.16694850743875e-07,-0.0108170206432994,-1.16693812654989e-07,0,0,0,0.00139853044297637,0.00259254669350256
78.8,-0.180398048385875,0.0582689081239758,-0.180398048241646,0,0,0,0.738948397084708,-1.3736649366082e-07,-0.0114494485698655,-1.37367505587474e-07,0,0,0,0.00146770765816047,0.00270111106937478
79,-0.185640943794833,0.0487901641694318,-0.1856409436398,0,0,0,0.724341926968139,-1.61630774861421e-07,-0.0120900398219273,-1.61630475246921e-07,0,0,0,0.00154715658814849,0.00281245982036218
79.2,-0.191171771720769,0.0392207131532811,-0.191171771573386,0,0,0,0.709551051951736,-1.90084108934833e-07,-0.0127387106925514,-1.9008473651095e-07,0,0,0,0.00163772900589816,0.00292658698562432
79.4,-0.197004085807307,0.029558802241544,-0.197004085632194,0,0,0,0.694579002194172,-2.23402076338086e-07,-0.0133953181625178,-2.23399169411651e-07,0,0,0,0.001740351888335,0.00304347491396182
79.6,-0.203151754721478,0.0198026272961799,-0.203151754573478,0,0,0,0.679430126117832,-2.62409237643778e-07,-0.014059669849451,-2.62409783264618e-07,0,0,0,0.00185603853732878,0.0031631013913146
79.8,-0.209628920297894,0.00995033085316809,-0.20962892011494,0,0,0,0.66410998075142,-3.08011461629468e-07,-0.0147315202254477,-3.08007333374438e-07,0,0,0,0.00198589677901155,0.00328544103447922
80,-0.216449570595319,0,-0.216449570439295,0,0,0,0.648625908244032,-3.6123121690667e-07,-0.0154105452025381,-3.61230661783882e-07,0,0,0,0.00213112977702275,0.00341045602001757
