t,LE11,LE22,LE33,LE12,LE13,LE23,J,S11,S22,S33,S12,S13,S23,psiE,psiNE
0,0,0,0,0,0,0,1,0,0,0,0,0,0,0,0
0.2,-0.0049737704413051,0.00995033085316809,-0.00497377044130487,0,0,0,1.00000278997445,-1.57414771322084e-14,0.00122368279386057,-1.57407724007963e-14,0,0,0,2.17865203873873e-06,3.89600315763958e-06
0.4,-0.00989852575175463,0.0198026272961797,-0.00989852575175418,0,0,0,1.00000557580822,-2.89326939142964e-14,0.00244554948341363,-2.89227192543096e-14,0,0,0,8.65748910218661e-06,1.5454026733311e-05
0.6,-0.0147752232792284,0.0295588022415444,-0.0147752232792271,0,0,0,1.000008355718,2.13321114245213e-14,0.0036648179137627,2.13449050101566e-14,0,0,0,1.9352845652389e-05,3.44716799871493e-05
0.8,-0.0196047925484973,0.0392207131532813,-0.0196047925484967,0,0,0,1.0000111281182,-6.60539331565069e-15,0.00488079264439773,-6.59758706000879e-15,0,0,0,3.41836483811478e-05,6.07392282325581e-05
1,-0.0243881363367718,0.048790164169432,-0.0243881363367658,0,0,0,1.00001389159238,1.30186660063369e-14,0.00609285241860639,1.30204007298129e-14,0,0,0,5.30713082840366e-05,9.40416511273988e-05
1.2,-0.0291261316854978,0.0582689081239758,-0.0291261316854896,0,0,0,1.00001664489151,2.02030232820949e-14,0.00730044941760335,2.0195217026453e-14,0,0,0,7.59396204063041e-05,0.000134160192430025
1.4,-0.0338196308620386,0.0676586484738149,-0.0338196308620301,0,0,0,1.00001938693767,2.88458493202803e-14,0.008503110862251,2.88436809159354e-14,0,0,0,0.00010271467061734,0.000180873685698744
1.6,-0.0384694622765097,0.0769610411361284,-0.0384694622765019,0,0,0,1.00002211682769,-3.69543805278649e-14,0.00970044062497595,-3.69587173365549e-14,0,0,0,0.000133324748807928,0.000233959742615853
1.8,-0.0430764313571791,0.0861776962410524,-0.043076431357171,0,0,0,1.00002483383506,2.17790195600198e-14,0.0108921200559678,2.17772848365438e-14,0,0,0,0.000167700267946602,0.000293195834317371
2,-0.0476413213870698,0.0953101798043249,-0.0476413213870549,0,0,0,1.00002753740935,-1.25593979660721e-14,0.0120779077399214,-1.25541937956442e-14,0,0,0,0.000205773688474273,0.000358360275380035
2.2,-0.0521648943039952,0.104360015324243,-0.0521648943039795,0,0,0,1.0000302271731,-2.89906987305244e-14,0.0132576381216572,-2.89837598366205e-14,0,0,0,0.000247479447556143,0.00042923311195346
2.4,-0.0566478914660671,0.113328685307003,-0.0566478914660352,0,0,0,1.00003290291619,1.50808185384044e-14,0.0144312190409343,1.50912268792602e-14,0,0,0,0.000292753892748744,0.000505596912668912
2.6,-0.0610910343843577,0.122217632724249,-0.0610910343843397,0,0,0,1.00003556458796,-4.49033171756597e-15,0.0155986282777814,-5.20937459835835e-15,0,0,0,0.000341535219676033,0.000587237460559755
2.8,-0.0654950254245681,0.131028262406404,-0.0654950254245399,0,0,0,1.00003821228737,2.5209001552895e-14,0.0167599092391162,2.52159404467989e-14,0,0,0,0.000393763413342505,0.000673944345009963
3,-0.0698605484789098,0.139761942375159,-0.0698605484788817,0,0,0,1.00004084625155,3.41462969011275e-14,0.0179151659309244,3.41454295393895e-14,0,0,0,0.00044938019274333,0.000765511454054013
3.2,-0.0741882696099464,0.148420005118273,-0.0741882696099185,0,0,0,1.00004346684306,2.3412695393521e-14,0.0190645573680181,2.3409225946569e-14,0,0,0,0.000508328958461317,0.000861737368833079
3.4,-0.0784788376674554,0.157003748809665,-0.0784788376674274,0,0,0,1.00004607453618,7.03343633334796e-15,0.0202082915688732,7.03517105682394e-15,0,0,0,0.000570554742968375,0.000962425663473535
3.6,-0.0827328848796745,0.165514438477573,-0.0827328848796466,0,0,0,1.00004866990259,-1.86343995789429e-14,0.0213466192775225,-1.8627460685039e-14,0,0,0,0.00063600416337525,0.00106738511497552
3.8,-0.0869510274200579,0.173953307123438,-0.086951027420029,0,0,0,1.00005125359677,2.94790233890119e-14,0.0224798275440645,2.95553512219549e-14,0,0,0,0.000704625376396989,0.00117642982882869
4,-0.0911338659506474,0.182321556793955,-0.0911338659506198,0,0,0,1.00005382634127,-1.75987696637847e-14,0.0236082332822951,-1.76057085576886e-14,0,0,0,0.00077636803532442,0.00128937928697848
4.2,-0.095281986143113,0.19062035960865,-0.0952819861430853,0,0,0,1.00005638891225,1.39731975989932e-14,0.0247321769112709,1.39749323224692e-14,0,0,0,0.000851183248812099,0.00140605832544486
4.4,-0.0993959591784407,0.198850858745165,-0.0993959591784131,0,0,0,1.00005894212533,1.53071999520193e-14,0.0258520161698425,1.52985263346395e-14,0,0,0,0.000929023541312511,0.00152629704935549
4.6,-0.103476342226233,0.207014169384326,-0.103476342226207,0,0,0,1.00006148682212,2.16614920445224e-14,0.0269681201833637,2.16025114463392e-14,0,0,0,0.00100984281500362,0.00164993069341273
4.8,-0.10752367890452,0.215111379616945,-0.107523678904492,0,0,0,1.00006402385737,1.58519031234761e-14,0.028080863843974,1.59074142747073e-14,0,0,0,0.00109359631307318,0.0017767994358924
5,-0.111538499720934,0.22314355131421,-0.111538499720907,0,0,0,1.00006655408699,2.62845301080006e-14,0.0291906225553053,2.62845301080006e-14,0,0,0,0.00118024058423781,0.0019067481741952
5.2,-0.11552132249611,0.231111720963387,-0.115521322496079,0,0,0,1.000069078357,1.35082917074314e-14,0.0302977673788516,1.36956418428369e-14,0,0,0,0.0012697334483884,0.00203962626976447
5.4,-0.119472652770048,0.2390169004705,-0.119472652770021,0,0,0,1.00007159749341,1.67661023953158e-14,0.0314026606091116,1.67678371187918e-14,0,0,0,0.00136203396326583,0.00217528726987154
5.6,-0.123392984192271,0.246860077931526,-0.123392984192244,0,0,0,1.00007411229319,1.72917236085368e-14,0.0325056517936782,1.72882541615849e-14,0,0,0,0.00145710239208215,0.00231358861337428
5.8,-0.127282798896418,0.254642218373581,-0.127282798896391,0,0,0,1.0000766235162,4.0462425077159e-14,0.0336070742067839,4.04589556302071e-14,0,0,0,0.00155490017201256,0.00245439132709558
6,-0.131142567860043,0.262364264467491,-0.131142567860015,0,0,0,1.00007913187819,1.66325286876656e-14,0.0347072417762811,1.66394675815695e-14,0,0,0,0.00165538988349289,0.00259755971896562
6.2,-0.134972751250235,0.27002713721306,-0.134972751250208,0,0,0,1.00008163804482,-1.61745616900077e-14,0.0358064464587069,-1.61762964134837e-14,0,0,0,0.00175853522026551,0.00274296107353928
6.4,-0.138773798755723,0.27763173659828,-0.138773798755695,0,0,0,1.00008414262665,2.72872002771152e-14,0.0369049560505915,2.73444461518224e-14,0,0,0,0.00186430096012436,0.00289046535495129
6.6,-0.142546149906052,0.285178942233662,-0.142546149906024,0,0,0,1.00008664617515,-2.36668323827516e-14,0.0380030124204849,-2.36650976592756e-14,0,0,0,0.00197265293631613,0.00303994492181706
6.8,-0.146290234378432,0.29266961396282,-0.146290234378405,0,0,0,1.00008914917953,1.18863252573931e-14,0.0391008301439092,1.1891529427821e-14,0,0,0,0.00208355800956125,0.00319127425803532
7,-0.150006472292798,0.300104592450338,-0.150006472292771,0,0,0,1.00009165206456,-1.79595921467879e-14,0.0401985955174979,-1.79630615937398e-14,0,0,0,0.00219698404066317,0.00334432972290734
7.2,-0.153695274495614,0.307484699747961,-0.153695274495586,0,0,0,1.00009415518908,2.72178113380761e-15,0.0412964659314869,2.78076173199082e-15,0,0,0,0.0023128998636796,0.00349898932345853
7.4,-0.157357042832934,0.314810739840034,-0.157357042832907,0,0,0,1.00009665884536,1.68007968648354e-14,0.0423945695735615,1.67990621413594e-14,0,0,0,0.00243127525963323,0.00365513251134052
7.6,-0.160992170413197,0.322083499169113,-0.16099217041317,0,0,0,1.0000991632591,-6.70123678769841e-15,0.0434930054403381,-6.70644095812634e-15,0,0,0,0.00255208093074354,0.00381264000620266
7.8,-0.1646010418602,0.3293037471426,-0.164601041860173,0,0,0,1.00010166859013,1.4361775657612e-14,0.0445918436300396,1.4361775657612e-14,0,0,0,0.00267528847516413,0.00397139364695695
8,-0.16818403355672,0.336472236621213,-0.168184033556693,0,0,0,1.00010417493363,-1.00353753085258e-14,0.0456911258904873,-1.00388447554778e-14,0,0,0,0.0028008703622129,0.00413127627191936
8.2,-0.171741513879164,0.343589704390077,-0.171741513879138,0,0,0,1.00010668232193,-1.63116048446099e-14,0.0467908663981443,-1.63098701211339e-14,0,0,0,0.00292879990808508,0.00429217162839323
8.4,-0.175273843423671,0.350656871613169,-0.175273843423645,0,0,0,1.00010919072673,-1.37702349523039e-14,0.0478910527423893,-1.37702349523039e-14,0,0,0,0.00305905125204041,0.00445396431186917
8.6,-0.17878137522403,0.357674444271816,-0.178781375224004,0,0,0,1.00011170006177,-1.06685493772574e-14,0.0489916470919895,-1.06650799303054e-14,0,0,0,0.00319159933305839,0.00461653973464907
8.8,-0.182264454961779,0.364643113587909,-0.182264454961752,0,0,0,1.00011421018586,-2.47753206839008e-14,0.050092587520387,-2.47787901308527e-14,0,0,0,0.00332641986695602,0.00477978412335972
9,-0.185723421168822,0.371563556432483,-0.185723421168796,0,0,0,1.00011672090622,-1.33955346814929e-14,0.0511937894679495,-1.33990041284449e-14,0,0,0,0.00346348932396414,0.0049435845445049
9.2,-0.189158605422902,0.378436435720245,-0.189158605422877,0,0,0,1.00011923198203,3.35495520253914e-15,0.052295147319914,3.35495520253914e-15,0,0,0,0.00360278490675917,0.00510782895691244
9.4,-0.192570332536226,0.385262400790645,-0.192570332536194,0,0,0,1.00012174312832,8.45851166886291e-15,0.053396536080466,8.45851166886291e-15,0,0,0,0.00374428452894773,0.00527240628966554
9.6,-0.195958920737529,0.392042087776024,-0.195958920737496,0,0,0,1.00012425401989,-1.70974345792274e-14,0.0544978131237989,-1.71009040261794e-14,0,0,0,0.00388796679400209,0.00543720654386501
9.8,-0.199324681847905,0.398776119957368,-0.199324681847882,0,0,0,1.0001267642955,-2.95562185836928e-14,0.0555988200044421,-2.94521351751342e-14,0,0,0,0.00403381097464481,0.0056021209163513
10,-0.202667921450626,0.405465108108164,-0.202667921450608,0,0,0,1.00012927356204,1.55257751099924e-14,0.0566993843098169,1.55257751099924e-14,0,0,0,0.004181796992681,0.00576704194332381
10.2,-0.205988939055198,0.412109650826833,-0.205988939055182,0,0,0,1.00013178139886,3.43856887408123e-14,0.0577993215392203,3.43822192938603e-14,0,0,0,0.00433190539927682,0.0059318636616273
10.4,-0.209288028255946,0.418710334858185,-0.209288028255931,0,0,0,1.00013428736205,1.58623114643319e-14,0.0588984369947139,1.58623114643319e-14,0,0,0,0.00448411735568276,0.00609648178533546
10.6,-0.212565476885317,0.425267735404344,-0.212565476885303,0,0,0,1.00013679098876,-7.85829734617494e-15,0.0599965276693553,-7.85829734617494e-15,0,0,0,0.0046384146144,0.00626079389514734
10.8,-0.215821567162149,0.431782416425538,-0.215821567162132,0,0,0,1.00013929180146,1.50920942409982e-15,0.0610933841198639,1.56125112837913e-15,0,0,0,0.0047947795007882,0.00642469963802523
11,-0.219056575835085,0.438254930931155,-0.21905657583507,0,0,0,1.00014178931216,-1.95260474455949e-14,0.0621887923113801,-1.9522577998643e-14,0,0,0,0.00495319489511257,0.00658810093444267
11.2,-0.222270774321377,0.444685821261446,-0.222270774321363,0,0,0,1.0001442830265,-5.45397060847108e-15,0.0632825354232725,-5.44703171456717e-15,0,0,0,0.00511364421502797,0.00675090219057903
11.4,-0.225464428841228,0.451075619360217,-0.225464428841212,0,0,0,1.0001467724478,-2.6031260480508e-14,0.0643743956045151,-2.60728938439314e-14,0,0,0,0.00527611139849734,0.00691301051279227
11.6,-0.228637800547879,0.457424847038875,-0.228637800547856,0,0,0,1.00014925708087,-4.01761957036229e-15,0.0654641556698296,-4.01068067645838e-15,0,0,0,0.00544058088714153,0.00707433592172526
11.8,-0.231791145653605,0.46373401623214,-0.231791145653579,0,0,0,1.00015173643577,8.98239815860791e-15,0.066551600726435,8.975459264704e-15,0,0,0,0.00560703761001699,0.00723479156345069
12,-0.234924715551804,0.470003629245736,-0.234924715551786,0,0,0,1.00015421003129,-3.08780778723872e-15,0.0676365197241472,-3.09127723419067e-15,0,0,0,0.00577546696781788,0.00739429391513776
12.2,-0.238038756935326,0.476234178996372,-0.238038756935307,0,0,0,1.00015667739836,1.70696790036118e-14,0.0687187069208104,1.70904956853235e-14,0,0,0,0.00594585481749816,0.00755276298282737
12.4,-0.241133511911158,0.482426149244293,-0.241133511911137,0,0,0,1.00015913808312,-1.39818712163731e-14,0.0697979632562957,-1.39784017694211e-14,0,0,0,0.00611818745730955,0.00771012248903084
12.6,-0.244209218111673,0.488580014818671,-0.244209218111659,0,0,0,1.00016159164986,-1.84852133600089e-14,0.0708740976300276,-1.84886828069608e-14,0,0,0,0.00629245161225017,0.00786630004801925
12.8,-0.247266108802558,0.494696241836107,-0.247266108802547,0,0,0,1.00016403768371,-1.19140808330087e-14,0.0719469280760016,-1.19106113860568e-14,0,0,0,0.00646863441991907,0.00802122732684516
13,-0.2503044129875,0.500775287912489,-0.250304412987495,0,0,0,1.00016647579305,3.19189119579733e-16,0.0730162828321006,3.15719672627779e-16,0,0,0,0.0066467234167709,0.00817484019033055
13.2,-0.253324355509842,0.506817602368452,-0.253324355509838,0,0,0,1.00016890561172,-2.92994795092483e-14,0.0740820012999659,-2.93480517665756e-14,0,0,0,0.00682670652476517,0.0083270788284668
13.4,-0.256326157151239,0.512823626428664,-0.256326157151243,0,0,0,1.00017132680094,-3.65124597223598e-14,0.0751439348934319,-3.65089902754079e-14,0,0,0,0.00700857203840386,0.00847788786489607
13.6,-0.259310034727516,0.518793793415168,-0.259310034727521,0,0,0,1.00017373905101,-4.03496680512205e-15,0.0762019477735453,-4.03496680512205e-15,0,0,0,0.00719230861215134,0.00862721644538126
13.8,-0.262276201181741,0.524728528934982,-0.262276201181741,0,0,0,1.00017614208269,-4.63414029372444e-14,0.077255917469977,-4.63518112781003e-14,0,0,0,0.00737790524822968,0.00877501830541452
14,-0.265224865674678,0.53062825106217,-0.265224865674682,0,0,0,1.0001785356484,-1.26634813746307e-15,0.0783057353895485,-1.25940924355916e-15,0,0,0,0.00756535128478328,0.00892125181636497
14.2,-0.268156233672715,0.536493370514568,-0.268156233672732,0,0,0,1.00018091953309,1.1966122537288e-14,0.0793513072115781,1.19175502799607e-14,0,0,0,0.00775463638440512,0.00906588000981582
14.4,-0.27107050703334,0.542324290825362,-0.271070507033345,0,0,0,1.00018329355489,-2.22391549620227e-15,0.0803925531739776,-2.22391549620227e-15,0,0,0,0.00794575052301829,0.00920887057998985
14.6,-0.273967884088185,0.548121408509688,-0.273967884088183,0,0,0,1.00018565756555,-1.40859546249317e-15,0.0814294082514508,-1.37737043992558e-15,0,0,0,0.00813868397910522,0.00935019586440486
14.8,-0.276848559723896,0.553885113226438,-0.276848559723887,0,0,0,1.00018801145059,-1.61710922430558e-14,0.0824618222298279,-1.61710922430558e-14,0,0,0,0.00833342732327748,0.00948983280313447
15,-0.279712725460711,0.559615787935423,-0.279712725460719,0,0,0,1.00019035512923,9.64159307947909e-15,0.0834897596811069,9.59995971605565e-15,0,0,0,0.00852997140817867,0.0096277628772713
15.2,-0.282560569528987,0.565313809050061,-0.282560569528994,0,0,0,1.00019268855413,1.25698063069279e-14,0.0845131998434939,1.24240895349459e-14,0,0,0,0.00872830735871329,0.0097639720273964
15.4,-0.285392276943564,0.570979546585738,-0.285392276943559,0,0,0,1.00019501171093,-2.33493779866478e-15,0.0855321364127115,-2.33146835171283e-15,0,0,0,0.00892842656259353,0.0098984505530476
15.6,-0.288208029576209,0.576613364303994,-0.288208029576194,0,0,0,1.00019732461753,1.00336405850499e-14,0.0865465772499884,1.00267016911459e-14,0,0,0,0.00913032066119717,0.0100311929943501
15.8,-0.291008006226119,0.582215619852664,-0.291008006226096,0,0,0,1.00019962732333,1.04118103028128e-14,0.0875565440133004,1.04118103028128e-14,0,0,0,0.00933398154072849,0.0101621979971189
16,-0.293792382688531,0.587786664902119,-0.293792382688509,0,0,0,1.00020191990816,-1.03042574473022e-14,0.0885620717189907,-1.03077268942542e-14,0,0,0,0.00953940132367511,0.0102914681628658
16.2,-0.296561331821539,0.593326845277734,-0.296561331821516,0,0,0,1.00020420248117,-7.19910242530375e-15,0.0895632082405587,-7.19910242530375e-15,0,0,0,0.00974657236055302,0.0104190098852634
16.4,-0.29931502361112,0.598836501088704,-0.299315023611098,0,0,0,1.00020647517955,-2.28914109889899e-14,0.0905600137516851,-2.29052887767978e-14,0,0,0,0.00995548722193235,0.0105448331746504
16.6,-0.302053625234479,0.60431596685333,-0.302053625234459,0,0,0,1.00020873816717,-2.06848427275474e-14,0.0915525601214061,-2.08305594995295e-14,0,0,0,0.0101661386907366,0.0106689514722739
16.8,-0.304777301121722,0.609765571620894,-0.304777301121699,0,0,0,1.00021099163308,-2.53859433474446e-14,0.0925409302681226,-2.53790044535407e-14,0,0,0,0.0103785197548079,0.0107913814559495
17,-0.307486213015904,0.615185639090233,-0.307486213015881,0,0,0,1.00021323578997,1.89293025698589e-14,0.0935252174803225,1.89293025698589e-14,0,0,0,0.010592623599731,0.0109121428388465
17.2,-0.310180520031537,0.62057648772511,-0.310180520031514,0,0,0,1.00021547087257,-1.9595436384634e-14,0.0945055247104637,-1.96023752785379e-14,0,0,0,0.0108084436019082,0.0110312581630825
17.4,-0.31286037871155,0.625938430866495,-0.312860378711527,0,0,0,1.000217697136,2.96707103331073e-14,0.0954819638501032,2.96707103331073e-14,0,0,0,0.0110259733218798,0.0111487525897792
17.6,-0.315525943082773,0.631271776841858,-0.315525943082751,0,0,0,1.00021991485406,-4.8919202022546e-15,0.0964546549910323,-4.8988590961585e-15,0,0,0,0.0112452064978803,0.0112646536871764
17.8,-0.318177364709985,0.636576829071551,-0.318177364709961,0,0,0,1.00022212431756,2.47024622979097e-14,0.0974237256811684,2.47163400857175e-14,0,0,0,0.0114661370396255,0.0113789912183304
18,-0.320814792748547,0.641853886172395,-0.320814792748524,0,0,0,1.0002243258326,2.29538610341251e-14,0.0983893101786125,2.29538610341251e-14,0,0,0,0.0116887590223235,0.011491796929839
18.2,-0.323438373995687,0.647103242058539,-0.323438373995664,0,0,0,1.0002265197189,1.64798730217797e-14,0.0993515487115415,1.64798730217797e-14,0,0,0,0.0119130666809008,0.0116031043429377
18.4,-0.326048252940441,0.65232518603969,-0.326048252940416,0,0,0,1.00022870630813,-1.39263600651418e-14,0.100310586747545,-1.38708489139105e-14,0,0,0,0.0121390544044397,0.0117129485482074
18.6,-0.328644571812304,0.657520002916794,-0.328644571812281,0,0,0,1.00023088594227,-3.08364445089637e-14,0.101266574277808,-3.08364445089637e-14,0,0,0,0.0123667167308175,0.0118213660050193
18.8,-0.331227470628641,0.662687973075237,-0.331227470628618,0,0,0,1.000233058972,2.40779618465581e-15,0.102219665119823,2.40779618465581e-15,0,0,0,0.0125960483415438,0.0119283943467254
19,-0.333797087240846,0.667829372575656,-0.333797087240823,0,0,0,1.00023522575523,-3.31679128606766e-15,0.103170016242349,-3.31679128606766e-15,0,0,0,0.0128270440567872,0.0120340721924805
19.2,-0.336353557379335,0.672944473242426,-0.336353557379313,0,0,0,1.00023738665553,2.57432963834958e-14,0.104117787116221,2.57363574895919e-14,0,0,0,0.0130596988305869,0.0121384389664614
19.4,-0.338897014697369,0.678033542749897,-0.338897014697346,0,0,0,1.0002395420408,1.57027169045421e-14,0.105063139092662,1.57027169045421e-14,0,0,0,0.0132940077462411,0.0122415347251264
19.6,-0.341427590813754,0.683096844706444,-0.34142759081373,0,0,0,1.00024169228183,-5.97438765126412e-15,0.106006234812411,-5.97438765126412e-15,0,0,0,0.0135299660118693,0.0123433999930409
19.8,-0.343945415354443,0.688134638736401,-0.343945415354419,0,0,0,1.00024383775113,-3.21270787750905e-15,0.106947237646508,-3.21964677141295e-15,0,0,0,0.0137675689561391,0.0124440756076802
20,-0.34645061599308,0.693147180559945,-0.346450615993057,0,0,0,1.00024597882164,1.55778168142717e-14,0.107886311170402,1.55778168142717e-14,0,0,0,0.0140068120241544,0.0125436025735119
20.2,-0.348943318490506,0.698134722070984,-0.348943318490483,0,0,0,1.00024811586565,1.04777297948999e-14,0.108823618672311,1.04222186436687e-14,0,0,0,0.0142476907734981,0.0126420219255566
20.4,-0.351423646733252,0.703097511413114,-0.351423646733229,0,0,0,1.00025024925375,-2.0268509093313e-14,0.109759322696325,-2.0268509093313e-14,0,0,0,0.0144902008704243,0.0127393746025322
20.6,-0.353891722771066,0.708035793053696,-0.353891722771042,0,0,0,1.0002523793539,-3.8372083288607e-15,0.110693584620348,-3.85108611666851e-15,0,0,0,0.0147343380861949,0.0128357013295971
20.8,-0.356347666853481,0.712949807856125,-0.356347666853457,0,0,0,1.00025450653048,2.81927259315751e-14,0.111626564268561,2.82066037193829e-14,0,0,0,0.0149800982935543,0.0129310425106291
21,-0.358791597465468,0.717839793150317,-0.358791597465444,0,0,0,1.00025663114354,1.0769163338864e-14,0.112558419558433,1.0769163338864e-14,0,0,0,0.015227477463339,0.0130254381299058
21.2,-0.361223631362187,0.72270598280149,-0.361223631362163,0,0,0,1.00025875354807,-3.85108611666851e-15,0.11348930618148,-3.85802501057242e-15,0,0,0,0.015476471661215,0.0131189276629881
21.4,-0.363643883602871,0.727548607277278,-0.363643883602847,0,0,0,1.00026087409329,-3.85108611666851e-15,0.11441937731647,-3.85802501057242e-15,0,0,0,0.0157270770445406,0.0132115499965555
21.6,-0.366052467583865,0.732367893713227,-0.366052467583841,0,0,0,1.00026299312215,-2.83106871279415e-15,0.115348783374534,-2.83106871279415e-15,0,0,0,0.0159792898593478,0.0133033433568937
21.8,-0.368449495070844,0.73716406597672,-0.36844949507082,0,0,0,1.00026511097076,-3.15372727932584e-14,0.11627767177476,-3.15442116871623e-14,0,0,0,0.0162331064374391,0.0133943452466975
22,-0.370835076230235,0.741937344729377,-0.370835076230212,0,0,0,1.00026722796796,-1.80411241501588e-14,0.117206186749081,-1.80480630440627e-14,0,0,0,0.0164885231935951,0.0134845923898212
22.2,-0.373209319659868,0.746687947487975,-0.373209319659845,0,0,0,1.00026934443496,-2.06223926824123e-14,0.118134469174552,-2.06223926824123e-14,0,0,0,0.0167455366228885,0.0135741206835825
22.4,-0.375572332418875,0.751416088683921,-0.375572332418851,0,0,0,1.00027146068498,1.10259024133086e-14,0.119062656432336,1.10259024133086e-14,0,0,0,0.0170041432981002,0.0136629651582099
22.6,-0.37792422005686,0.756121979721334,-0.377924220056837,0,0,0,1.00027357702301,1.79023462720806e-15,0.11999088229092,1.77635683940025e-15,0,0,0,0.0172643398672346,0.0137511599430112
22.8,-0.380265086642369,0.76080582903376,-0.380265086642345,0,0,0,1.00027569374558,2.52367571285106e-14,0.120919276812948,2.52298182346067e-14,0,0,0,0.0175261230511287,0.0138387382388333
23,-0.382595034790664,0.765467842139572,-0.382595034790641,0,0,0,1.00027781114064,-9.33975119465913e-15,0.121847966283001,-9.33975119465913e-15,0,0,0,0.0177894896411526,0.013925732296383
23.2,-0.384914165690843,0.770108221696074,-0.38491416569082,0,0,0,1.00027992948736,1.7798262863522e-14,0.122777073156011,1.7798262863522e-14,0,0,0,0.0180544364969972,0.0140121733999795
23.4,-0.387222579132304,0.774727167552368,-0.387222579132281,0,0,0,1.00028204905614,5.80091530366644e-15,0.123706716023255,5.79397640976254e-15,0,0,0,0.0183209605445461,0.0140980918563166
23.6,-0.389520373530591,0.779324876800998,-0.389520373530566,0,0,0,1.00028417010852,1.03389519168218e-14,0.124637009596023,1.04083408558608e-14,0,0,0,0.0185890587738275,0.0141835169878205
23.8,-0.391807645952621,0.78390154382841,-0.391807645952598,0,0,0,1.00028629289718,8.51402282009417e-15,0.12556806470404,8.51402282009417e-15,0,0,0,0.0188587282370446,0.0142684771302031
24,-0.394084492141336,0.78845736036427,-0.394084492141312,0,0,0,1.000288417666,-1.6306400674182e-14,0.126499988308152,-1.62994617802781e-14,0,0,0,0.0191299660466791,0.0143529996338207
24.2,-0.396351006539763,0.792992515529661,-0.39635100653974,0,0,0,1.00029054465008,4.39856484568679e-14,0.127432883525606,4.39856484568679e-14,0,0,0,0.0194027693736669,0.0144371108684694
24.4,-0.398607282314534,0.797507195884188,-0.398607282314511,0,0,0,1.00029267407585,3.71855324310388e-14,0.128366849666074,3.71785935371349e-14,0,0,0,0.0196771354456422,0.0145208362312597
24.6,-0.400853411378851,0.802001585472028,-0.400853411378828,0,0,0,1.00029480616115,2.07264760909709e-14,0.129301982278531,2.0719537197067e-14,0,0,0,0.0199530615452469,0.0146042001572359
24.8,-0.403089484414939,0.806475865866949,-0.403089484414916,0,0,0,1.00029694111538,-1.80411241501588e-15,0.130238373206222,-1.84574577843932e-15,0,0,0,0.0202305450085038,0.01468722613242
25,-0.405315590895977,0.810930216216329,-0.405315590895954,0,0,0,1.00029907913965,6.37684349769074e-15,0.131176110649695,6.37684349769074e-15,0,0,0,0.02050958322325,0.0147699367089847
25.2,-0.407531819107544,0.815364813284195,-0.40753181910752,0,0,0,1.0003012204269,-1.06581410364015e-14,0.132115279236295,-1.06581410364015e-14,0,0,0,0.0207901736276286,0.0148523535222717
25.4,-0.409738256168572,0.819779831493312,-0.409738256168549,0,0,0,1.0003033651621,7.9658502016855e-15,0.133055960095705,7.9658502016855e-15,0,0,0,0.0210723137086358,0.0149344973093989
25.6,-0.411934988051845,0.824175442966349,-0.411934988051822,0,0,0,1.00030551352243,4.47003545289704e-14,0.13399823093991,4.46934156350665e-14,0,0,0,0.0213560010007221,0.0150163879292131
25.8,-0.41412209960403,0.828551817566148,-0.414122099604007,0,0,0,1.00030766567749,3.30291349825984e-15,0.134942166147336,3.28903571045203e-15,0,0,0,0.0216412330844444,0.0150980443833653
26,-0.416299674565271,0.832909122935104,-0.416299674565248,0,0,0,1.00030982178944,-5.41927613895155e-15,0.135887836850514,-5.41927613895155e-15,0,0,0,0.0219280075851682,0.0151794848383042
26.2,-0.418467795588356,0.837247524533702,-0.418467795588332,0,0,0,1.00031198201328,2.83800760669806e-15,0.136835311025663,2.83800760669806e-15,0,0,0,0.0222163221718158,0.0152607266480006
26.4,-0.420626544257459,0.841567185678219,-0.420626544257438,0,0,0,1.000314146497,2.12538320276678e-14,0.13778465358465,2.11358708313014e-14,0,0,0,0.0225061745556609,0.0153417863772304
26.6,-0.422776001106486,0.845868267577609,-0.422776001106462,0,0,0,1.00031631538182,1.89431803576667e-15,0.138735926468088,1.89431803576667e-15,0,0,0,0.0227975624891666,0.0154226798252631
26.8,-0.424916245637005,0.85015092936961,-0.424916245636982,0,0,0,1.00031848880242,-9.35362898246694e-15,0.139689188739445,-9.35362898246694e-15,0,0,0,0.0230904837648647,0.0155034220498136
27,-0.427047356335818,0.854415328156068,-0.427047356335794,0,0,0,1.00032066688709,-1.84435799965854e-14,0.140644496679213,-1.84505188904893e-14,0,0,0,0.0233849362142759,0.0155840273911324
27.2,-0.429169410692132,0.858661619037519,-0.429169410692108,0,0,0,1.00032284975805,2.1767310176557e-14,0.141601903879261,2.1767310176557e-14,0,0,0,0.0236809177068675,0.0156645094961218
27.4,-0.431282485214386,0.86288995514704,-0.431282485214362,0,0,0,1.00032503753155,3.92047505570758e-14,0.142561461336485,3.92116894509797e-14,0,0,0,0.0239784261490489,0.015744881342377
27.6,-0.433386655446704,0.867100487683383,-0.43338665544668,0,0,0,1.00032723031816,-1.09010023230383e-14,0.143523217546,-1.09148801108461e-14,0,0,0,0.0242774594832017,0.0158251552620645
27.8,-0.43548199598502,0.871293365943419,-0.435481995984996,0,0,0,1.00032942822297,2.51465515077598e-14,0.144487218593324,2.51534904016637e-14,0,0,0,0.0245780156867448,0.015905342965559
28,-0.437568580492849,0.8754687373539,-0.437568580492825,0,0,0,1.00033163134575,-1.41553435639707e-15,0.145453508244582,-1.42247325030098e-15,0,0,0,0.0248800927712312,0.0159854555647716
28.2,-0.439646481716742,0.879626747502564,-0.439646481716718,0,0,0,1.0003338397812,1.34128819162527e-14,0.146422128036264,1.34128819162527e-14,0,0,0,0.0251836887814765,0.0160655035961102
28.4,-0.441715771501416,0.883767540168595,-0.441715771501392,0,0,0,1.00033605361916,-1.2712053631958e-14,0.147393117362288,-1.26981758441502e-14,0,0,0,0.0254888017947176,0.0161454970430226
28.6,-0.443776520804571,0.887891257352457,-0.443776520804546,0,0,0,1.00033827294473,2.41473507855972e-14,0.148366513560034,2.41751063612128e-14,0,0,0,0.0257954299197998,0.0162254453580784
28.8,-0.445828799711403,0.891998039305111,-0.445828799711379,0,0,0,1.00034049783856,1.70974345792274e-14,0.149342351993621,1.70974345792274e-14,0,0,0,0.0261035712963922,0.0163053574845549
29,-0.447872677448826,0.896088024556636,-0.447872677448802,0,0,0,1.00034272837696,-2.17256768131335e-14,0.150320666135834,-2.17256768131335e-14,0,0,0,0.0264132240942292,0.0163852418774981
29.2,-0.449908222399397,0.900161349944271,-0.449908222399374,0,0,0,1.00034496463212,1.90056304028019e-14,0.151301487647538,1.90056304028019e-14,0,0,0,0.0267243865123778,0.0164651065242345
29.4,-0.451935502114967,0.904218150639886,-0.451935502114944,0,0,0,1.00034720667226,2.06779038336435e-15,0.152284846454529,2.02615701994091e-15,0,0,0,0.027037056778529,0.0165449589643166
29.6,-0.453954583330049,0.908258560176891,-0.453954583330026,0,0,0,1.00034945456184,-1.4363510381088e-14,0.153270770822902,-1.43704492749919e-14,0,0,0,0.0273512331483136,0.0166248063088863
29.8,-0.455965531974925,0.912282710476616,-0.455965531974902,0,0,0,1.00035170836168,8.20871148832225e-15,0.154259287431455,8.20177259441834e-15,0,0,0,0.0276669139046395,0.01670465525945
30,-0.457968413188488,0.916290731874155,-0.457968413188464,0,0,0,1.00035396812914,-3.32928129509469e-14,0.155250421441851,-3.32928129509469e-14,0,0,0,0.0279840973570517,0.0167845121260569
30.2,-0.459963291330827,0.920282753143693,-0.459963291330802,0,0,0,1.0003562339183,1.29063426612674e-14,0.156244196566976,1.29271593429792e-14,0,0,0,0.0283027818411126,0.0168643828448788
30.4,-0.461950229995567,0.924258901523332,-0.461950229995544,0,0,0,1.00035850578006,4.03843625207401e-15,0.157240635136023,4.02455846426619e-15,0,0,0,0.0286229657178023,0.0169442729951929
30.6,-0.463929292021966,0.928219302739429,-0.463929292021944,0,0,0,1.00036078376233,1.67157954145125e-14,0.158239758158322,1.67227343084164e-14,0,0,0,0.0289446473729386,0.017024187815769
30.8,-0.465900539506771,0.932164081030445,-0.465900539506747,0,0,0,1.00036306791013,2.22044604925031e-16,0.159241585384025,2.08166817117217e-16,0,0,0,0.0292678252166151,0.0171041322206681
31,-0.467864033815838,0.936093359170335,-0.467864033815814,0,0,0,1.00036535826576,2.12052597703405e-14,0.160246135363125,2.11983208764366e-14,0,0,0,0.0295924976826571,0.017184110814457
31.2,-0.469819835595542,0.940007258491471,-0.469819835595515,0,0,0,1.00036765486891,1.53210777398272e-14,0.16125342550175,1.53210777398272e-14,0,0,0,0.0299186632280952,0.0172641279068505
31.4,-0.471768004783944,0.943905898907129,-0.471768004783917,0,0,0,1.00036995775676,7.32747196252603e-15,0.162263472116756,7.32747196252603e-15,0,0,0,0.0302463203326543,0.0173441875267895
31.6,-0.473708600621765,0.947789398933526,-0.473708600621739,0,0,0,1.00037226696418,4.00374178255447e-15,0.163276290487841,4.00374178255447e-15,0,0,0,0.0305754674982591,0.0174242934359665
31.8,-0.475641681663128,0.951657875711446,-0.475641681663107,0,0,0,1.00037458252373,-3.53883589099269e-16,0.164291894907694,-3.46944695195361e-16,0,0,0,0.0309061032485549,0.0175044491418117
32,-0.477567305786117,0.955511445027436,-0.477567305786097,0,0,0,1.00037690446587,-2.17326157070374e-14,0.165310298730099,-2.17326157070374e-14,0,0,0,0.0312382261284426,0.017584657909952
32.2,-0.479485530203038,0.959350221334602,-0.479485530203148,0,0,0,1.00037923281901,2.52436960224145e-14,0.166331514416168,2.52436960224145e-14,0,0,0,0.0315718347036278,0.0176649227761569
32.4,-0.481396411470847,0.963174317773006,-0.481396411470949,0,0,0,1.00038156760962,9.48546796664118e-15,0.167355553578214,9.48546796664118e-15,0,0,0,0.0319069275601838,0.0177452465577853
32.6,-0.483300005500691,0.966983846189673,-0.483300005500793,0,0,0,1.00038390886234,1.95676808090184e-14,0.168382427022513,1.95815585968262e-14,0,0,0,0.0322435033041269,0.0178256318647482
32.8,-0.485196367567961,0.970778917158225,-0.485196367568074,0,0,0,1.00038625660007,7.32747196252603e-15,0.169412144789456,7.32747196252603e-15,0,0,0,0.0325815605610056,0.0179060811100023
33,-0.48708555231069,0.974559639998131,-0.487085552327691,0,0,0,1.00038861084939,7.84212979276777e-10,0.170444716974569,7.83483965205445e-10,0,0,0,0.0329210979754668,0.0179865965193486
33.2,-0.488967613791954,0.978326122793608,-0.488967613791968,0,0,0,1.00039097161917,7.72108599278454e-10,0.171480150625547,7.72113005476083e-10,0,0,0,0.0332621142109998,0.0180671801419929
33.4,-0.490842605408213,0.982078472412158,-0.490842605408408,0,0,0,1.00039333893302,7.58701490521929e-10,0.172518454503499,7.58698173730643e-10,0,0,0,0.0336046079493637,0.0181478338582759
33.6,-0.492710579994258,0.985816794522765,-0.492710579994471,0,0,0,1.0003957128077,7.4820536571929e-10,0.173559635961354,7.48201244016311e-10,0,0,0,0.0339485778903503,0.0182285593894024
33.8,-0.494571589786642,0.989541193613748,-0.494571589786589,0,0,0,1.00039809325861,7.3660044730417e-10,0.174603701755115,7.3660762905936e-10,0,0,0,0.034294022751397,0.0183093583055742
34,-0.496425686440544,0.993251773010283,-0.496425686440653,0,0,0,1.00040048029992,7.26878897350236e-10,0.175650658090284,7.26879202661568e-10,0,0,0,0.0346409412672403,0.0183902320339766
34.2,-0.498272921039478,0.996948634891609,-0.498272921039526,0,0,0,1.00040287394452,7.15210911328423e-10,0.176700510637552,7.15213790969393e-10,0,0,0,0.0349893321895806,0.0184711818664075
34.4,-0.500113344102485,1.00063188030791,-0.50011334410258,0,0,0,1.00040527420425,7.04722384614609e-10,0.177753264574588,7.04723064626211e-10,0,0,0,0.0353391942867543,0.0185522089665467
34.6,-0.501947005593112,1.00430160919687,-0.501947005593298,0,0,0,1.00040768108981,6.95098624492463e-10,0.178808924602487,6.95095356273434e-10,0,0,0,0.0356905263434166,0.0186333143768958
34.8,-0.50377395492746,1.00795792039998,-0.503773954927439,0,0,0,1.00041009461089,6.82903518456346e-10,0.179867494971627,6.82909451210634e-10,0,0,0,0.0360433271602321,0.0187144990253893
35,-0.505594240981535,1.01160091167848,-0.505594240981513,0,0,0,1.00041251477626,6.74568401137776e-10,0.180928979518945,6.74574403281003e-10,0,0,0,0.0363975955535735,0.0187957637316918
35.2,-0.50740791209985,1.01523067972906,-0.507407912099968,0,0,0,1.0004149415937,6.6348398997107e-10,0.181993381668309,6.63484031604433e-10,0,0,0,0.0367533303552296,0.0188771092132081
35.4,-0.509215016102885,1.01884732019925,-0.509215016102905,0,0,0,1.0004173750702,6.56165510815043e-10,0.183060704478704,6.56169778234794e-10,0,0,0,0.0371105304121188,0.0189585360907915
35.6,-0.511015600294243,1.02245092770255,-0.51101560029417,0,0,0,1.00041981521188,6.46183211105988e-10,0.184130950639242,6.46191364306326e-10,0,0,0,0.0374691945860126,0.0190400448941962
35.8,-0.51280971146825,1.02604159583327,-0.512809711468408,0,0,0,1.00042226202413,6.36872471426742e-10,0.185204122511858,6.36870806092205e-10,0,0,0,0.0378293217532644,0.0191216360672509
36,-0.51459739591381,1.02961941718116,-0.514597395921837,0,0,0,1.00042471551162,6.28560127557964e-10,0.18628022213748,6.28222501797282e-10,0,0,0,0.0381909108045459,0.019203309972794
36.2,-0.516378699435078,1.03318448334565,-0.51637869944585,0,0,0,1.00042717567828,6.19603084117681e-10,0.187359251255777,6.19148572689188e-10,0,0,0,0.0385539606445911,0.0192850668973644
36.4,-0.51815366734625,1.03673688495002,-0.51815366734622,0,0,0,1.00042964252748,6.11714207066072e-10,0.188441211327205,6.11720382681646e-10,0,0,0,0.0389184701919449,0.0193669070556618
36.6,-0.519922344464251,1.04027671165515,-0.51992234446425,0,0,0,1.0004321160619,6.04086114464053e-10,0.18952610354295,6.04091027200937e-10,0,0,0,0.0392844383787198,0.0194488305947918
36.8,-0.521684775149541,1.04380405217311,-0.521684775149498,0,0,0,1.00043459628369,5.92388277320666e-10,0.19061392884098,5.92395271725721e-10,0,0,0,0.0396518641503581,0.0195308375982998
37,-0.52344100328949,1.04731899428056,-0.52344100328961,0,0,0,1.00043708319449,5.84629220035104e-10,0.191704687935704,5.84629220035104e-10,0,0,0,0.0400207464653984,0.0196129280900001
37.2,-0.525191072310887,1.05082162483176,-0.525191072311052,0,0,0,1.0004395767954,5.76707195887316e-10,0.192798381307941,5.7670533626375e-10,0,0,0,0.0403910842952509,0.019695102037627
37.4,-0.526935025185847,1.05431202977153,-0.526935025185925,0,0,0,1.00044207708704,5.70575448000099e-10,0.193895009236405,5.70577182723575e-10,0,0,0,0.0407628766239753,0.0197773593562906
37.6,-0.528672904438199,1.05779029414785,-0.528672904438278,0,0,0,1.00044458406959,5.62424093408787e-10,0.19499457179865,5.62425869765626e-10,0,0,0,0.041136122448066,0.0198596999117683
37.8,-0.530404752149913,1.06125650212434,-0.530404752150007,0,0,0,1.00044709774284,5.55727769357972e-10,0.196097068896179,5.55728865703209e-10,0,0,0,0.0415108207762404,0.0199421235236226
38,-0.532130609967064,1.06471073699243,-0.532130609967185,0,0,0,1.00044961810611,5.45337469626261e-10,0.197202500250045,5.45337469626261e-10,0,0,0,0.0418869706292346,0.0200246299681706
38.2,-0.533850519108509,1.0681530811834,-0.533850519103228,0,0,0,1.00045214515849,5.39039590741197e-10,0.198310865433367,5.39268574240026e-10,0,0,0,0.0422645710396009,0.0201072189812903
38.4,-0.535564520358295,1.07158361628019,-0.535564520358428,0,0,0,1.0004546788986,5.33560987059367e-10,0.199422163857165,5.33560445825643e-10,0,0,0,0.0426436210515137,0.0201898902610993
38.6,-0.537272654098586,1.07500242302898,-0.53727265409855,0,0,0,1.00045721932475,5.22262358360059e-10,0.200536394788998,5.22269102964934e-10,0,0,0,0.0430241197205772,0.0202726434704849
38.8,-0.538974960287825,1.07840958135059,-0.538974960287907,0,0,0,1.00045976643506,5.17272197297913e-10,0.201653557383191,5.17273834876875e-10,0,0,0,0.043406066113636,0.0203554782395003
39,-0.540671478477033,1.08180517035173,-0.540671478484519,0,0,0,1.00046232022725,5.09765479828062e-10,0.202773650650493,5.09454020636291e-10,0,0,0,0.0437894593085961,0.0204383941676571
39.2,-0.542362247830335,1.08518926833597,-0.542362247830352,0,0,0,1.00046488069884,5.04284822233636e-10,0.203896673501329,5.04289138225644e-10,0,0,0,0.044174298394242,0.0205213908260738
39.4,-0.544047307093564,1.08856195281461,-0.544047307093696,0,0,0,1.00046744784706,4.95360974461789e-10,0.205022624728864,4.95360447105853e-10,0,0,0,0.0445605824700648,0.0206044677595334
39.6,-0.545726694636904,1.09192330051731,-0.545726694637005,0,0,0,1.00047002166899,4.89153773042261e-10,0.206151503039691,4.89154342031561e-10,0,0,0,0.0449483106460884,0.0206876244884158
39.8,-0.547400448441136,1.0952733874026,-0.547400448441264,0,0,0,1.00047260216142,4.81277101505029e-10,0.20728330703805,4.81276504760153e-10,0,0,0,0.0453374820427044,0.0207708605105455
40,-0.549068606106795,1.09861228866811,-0.549068606106962,0,0,0,1.00047518932104,4.77961004108352e-10,0.208418035253862,4.7795835345088e-10,0,0,0,0.0457280957905063,0.0208541753029263
40.2,-0.547402275460738,1.0952733874026,-0.547402275460828,0,0,0,1.00046894640203,4.79343065240556e-10,0.20567989097157,4.79343592596493e-10,0,0,0,0.0453375382185387,0.0203424917499675
40.4,-0.545730273806612,1.09192330051731,-0.545730273806627,0,0,0,1.00046285999072,4.89067467079884e-10,0.20301039095026,4.89071283471532e-10,0,0,0,0.0449484204891618,0.019848456725188
40.6,-0.54405256821273,1.08856195281461,-0.544052568212871,0,0,0,1.0004569207455,4.9366019605479e-10,0.200405437990768,4.93659002565039e-10,0,0,0,0.0445607435337668,0.0193709768532281
40.8,-0.542369124948669,1.08518926833597,-0.542369124948696,0,0,0,1.00045112016271,5.01484825887744e-10,0.1978613023626,5.01488295334696e-10,0,0,0,0.044174508296011,0.0189090565561459
41,-0.540679909527182,1.08180517035173,-0.540679909527221,0,0,0,1.00044545048094,5.07715744446635e-10,0.19537457992374,5.07719047360133e-10,0,0,0,0.0437897157310953,0.0184617869441664
41.2,-0.538984886740681,1.07840958135059,-0.538984886740798,0,0,0,1.00043990459877,5.12509673589179e-10,0.192942155996658,5.12509631955815e-10,0,0,0,0.0434063668052346,0.0180283362201239
41.4,-0.537284020691428,1.07500242302898,-0.537284020691548,0,0,0,1.00043447600337,5.23181789557903e-10,0.190561174031177,5.23181761802327e-10,0,0,0,0.0430244624952908,0.0176079413590038
41.6,-0.53557727481714,1.07158361628019,-0.535577274817258,0,0,0,1.00042915870805,5.25951324159557e-10,0.18822900829992,5.25951379670708e-10,0,0,0,0.0426440037885349,0.0171999008664349
41.8,-0.533864611912555,1.0681530811834,-0.533864611912727,0,0,0,1.00042394719834,5.35016565772484e-10,0.185943240122595,5.35014685332236e-10,0,0,0,0.0422649916825016,0.0168035684540341
42,-0.532145994147953,1.06471073699243,-0.532145994147946,0,0,0,1.000418836384,5.43610982617349e-10,0.183701636936866,5.43616561488047e-10,0,0,0,0.041887427184938,0.0164183474971086
42.2,-0.530421383081846,1.06125650212434,-0.530421383085642,0,0,0,1.00041382155738,5.50426031142859e-10,0.181502133965543,5.50270953803e-10,0,0,0,0.0415113113138078,0.01604368616245
42.4,-0.528690739683723,1.05779029414785,-0.52869073968382,0,0,0,1.00040889835646,5.59671850530741e-10,0.17934281802492,5.59673085653856e-10,0,0,0,0.041136645097353,0.0156790731122532
42.6,-0.526954024325286,1.05431202977153,-0.526954024325455,0,0,0,1.00040406273215,5.67328323208827e-10,0.177221913187013,5.67326387257427e-10,0,0,0,0.0407634295742008,0.0153240337050902
42.8,-0.525211196807898,1.05082162483176,-0.525211196807867,0,0,0,1.00039931091938,5.76307432331724e-10,0.175137768089517,5.76313927136418e-10,0,0,0,0.0403916657935017,0.0149781266271573
43,-0.523462216357412,1.04731899428056,-0.523462216361527,0,0,0,1.00039463941127,5.82406442517502e-10,0.173088844619324,5.82237327795276e-10,0,0,0,0.0400213548151015,0.014640940897212
43.2,-0.521707041642281,1.04380405217311,-0.52170704164236,0,0,0,1.00039004493623,5.89890761237832e-10,0.171073707849217,5.8989264167808e-10,0,0,0,0.0396524977097335,0.0143120931970299
43.4,-0.519945630756586,1.04027671165515,-0.519945630756695,0,0,0,1.00038552443732,5.97667595969575e-10,0.169091017011505,5.97668248225602e-10,0,0,0,0.0392850955592351,0.0139912254862877
43.6,-0.518177941243341,1.03673688495002,-0.518177941243428,0,0,0,1.00038107505391,6.07301854638198e-10,0.167139517430295,6.0730345752269e-10,0,0,0,0.0389191494567781,0.0136780028666463
43.8,-0.516403930091829,1.03318448334565,-0.516403930080152,0,0,0,1.00037669410508,6.15602978315533e-10,0.165218033258431,6.16104417483498e-10,0,0,0,0.0385546605071172,0.013372111664785
44,-0.514623553711025,1.02961941718116,-0.514623553711199,0,0,0,1.00037237907482,6.28260610202602e-10,0.163325460957398,6.28258514656643e-10,0,0,0,0.0381916298268467,0.0130732577082983
44.2,-0.512836767980743,1.02604159583327,-0.512836767996487,0,0,0,1.00036812759838,6.35496884282549e-10,0.161460763380701,6.34831860690799e-10,0,0,0,0.037830058544675,0.0127811647719245
44.4,-0.511043528230551,1.02245092770255,-0.51104352823071,0,0,0,1.00036393745046,6.4635324176221e-10,0.159622964477218,6.4635178459449e-10,0,0,0,0.0374699478017001,0.0124955731745385
44.6,-0.509243789190039,1.01884732019925,-0.509243789190247,0,0,0,1.00035980653381,6.52462403549769e-10,0.157811144423542,6.52458795324939e-10,0,0,0,0.0371112987517049,0.0122162385099521
44.8,-0.50743750505865,1.01523067972906,-0.507437505058739,0,0,0,1.00035573286961,6.65018588807964e-10,0.156024435279346,6.6502000434232e-10,0,0,0,0.0367541125614499,0.0119429304966804
45,-0.50562462946366,1.01160091167848,-0.505624629463874,0,0,0,1.00035171458802,6.74689970558973e-10,0.154262016957302,6.74686320700779e-10,0,0,0,0.0363983904109844,0.0116754319337747
45.2,-0.503805115465348,1.00795792039998,-0.503805115465449,0,0,0,1.00034774992017,6.83463292905362e-10,0.15252311362044,6.83464430883962e-10,0,0,0,0.0360441334939565,0.0114135377513563
45.4,-0.501978915552422,1.00430160919687,-0.50197891555244,0,0,0,1.00034383719047,6.93288128295055e-10,0.150806990352216,6.93292867559592e-10,0,0,0,0.0356913430179353,0.0111570541459336
45.6,-0.500145981638171,1.00063188030791,-0.500145981638398,0,0,0,1.00033997480968,7.03066500851168e-10,0.149112950118331,7.03062254248099e-10,0,0,0,0.0353400202047394,0.010905797791736
45.8,-0.49830626505621,0.996948634891609,-0.498306265056319,0,0,0,1.00033616126862,7.13233777593913e-10,0.147440330990514,7.13234540872243e-10,0,0,0,0.0349901662907718,0.0106595951203509
46,-0.496459716554341,0.993251773010283,-0.496459716554642,0,0,0,1.00033239513232,7.22718759837981e-10,0.145788503591474,7.22711314404823e-10,0,0,0,0.0346417825273635,0.0104182816618469
46.2,-0.494606286290373,0.989541193613748,-0.494606286290477,0,0,0,1.0003286750347,7.33782153095053e-10,0.144156868754006,7.33783242501396e-10,0,0,0,0.0342948701811222,0.0101817014413413
46.4,-0.49274592383735,0.985816794522765,-0.492745923812747,0,0,0,1.00032499967362,7.46638598170257e-10,0.142544855356499,7.47707645798457e-10,0,0,0,0.0339494305342913,0.00994970642566049
46.6,-0.490878578116501,0.982078472412158,-0.490878578116926,0,0,0,1.0003213678063,7.58461543570732e-10,0.140951918328066,7.58448644166965e-10,0,0,0,0.0336054648851159,0.00972215601532709
46.8,-0.489004197516757,0.978326122793608,-0.489004197512423,0,0,0,1.00031777824524,7.69981842174694e-10,0.139377536821881,7.70175437314613e-10,0,0,0,0.0332629745482145,0.00949891657763201
47,-0.487122729751849,0.974559639998131,-0.487122729751933,0,0,0,1.00031422985421,7.77604466928317e-10,0.137821212501213,7.77606430635291e-10,0,0,0,0.0329219608549631,0.00927986101701512
47.2,-0.485234121938574,0.970778917158225,-0.485234121938737,0,0,0,1.00031072154486,7.92713394925926e-10,0.136282467988079,7.92711694896919e-10,0,0,0,0.0325824251538829,0.00906486837936177
47.4,-0.483338320557137,0.966983846189673,-0.483338320557264,0,0,0,1.00030725226758,3.83859610764148e-14,0.134760844561969,3.83582055007992e-14,0,0,0,0.0322443688111378,0.0088538234873381
47.6,-0.481435271443247,0.963174317773006,-0.481435271443374,0,0,0,1.00030382103065,-4.68375338513738e-15,0.133255904042061,-4.69069227904129e-15,0,0,0,0.0319077932105686,0.0086466166032279
47.8,-0.479524919794602,0.959350221334602,-0.47952491979471,0,0,0,1.0003004268644,-1.7430501486615e-14,0.131767222727732,-1.74166236988071e-14,0,0,0,0.0315726997546685,0.00844314311885261
48,-0.47760721015156,0.955511445027436,-0.47760721015167,0,0,0,1.00029706884042,1.71390679426509e-14,0.130294393407116,1.71321290487469e-14,0,0,0,0.0312390898646439,0.00824330326770133
48.2,-0.475682086391356,0.951657875711446,-0.475682086391464,0,0,0,1.00029374606355,-3.45140582780346e-14,0.12883702347482,-3.45071193841306e-14,0,0,0,0.0309069649809465,0.00804700185929852
48.4,-0.473749491719208,0.947789398933526,-0.473749491719314,0,0,0,1.00029045766967,-3.60822483003176e-15,0.127394733915544,-3.60822483003176e-15,0,0,0,0.0305763265637245,0.00785414803322332
48.6,-0.471809368659216,0.943905898907129,-0.471809368659322,0,0,0,1.00028720282343,1.32116539930394e-14,0.125967158354998,1.31977762052315e-14,0,0,0,0.0302471760932867,0.00766465503130083
48.8,-0.469861659044971,0.940007258491471,-0.469861659045079,0,0,0,1.00028398071631,2.28012053682392e-14,0.124553942174872,2.28012053682392e-14,0,0,0,0.0299195150705779,0.00747843998650442
49,-0.467906304009901,0.936093359170335,-0.467906304010007,0,0,0,1.00028079056472,4.61436444609831e-15,0.123154741685779,4.62130334000221e-15,0,0,0,0.0295933450176673,0.00729542372724476
49.2,-0.465943243977333,0.932164081030445,-0.46594324397744,0,0,0,1.0002776316082,-8.89566198480907e-15,0.121769223354708,-8.89566198480907e-15,0,0,0,0.0292686674782514,0.00711553059584263
49.4,-0.463972418650302,0.928219302739429,-0.463972418650408,0,0,0,1.0002745031078,1.8249290967276e-14,0.120397063082882,1.82423520733721e-14,0,0,0,0.0289454840181698,0.00693868828009114
49.6,-0.461993767001074,0.924258901523332,-0.46199376700118,0,0,0,1.00027140434458,-4.83640905102334e-15,0.119037945530731,-4.82947015711943e-15,0,0,0,0.0286237962259365,0.00676482765691095
49.8,-0.460007227260403,0.920282753143693,-0.46000722726051,0,0,0,1.00026833461807,1.22818422099158e-14,0.117691563487459,1.22818422099158e-14,0,0,0,0.0283036057132865,0.00659388264718812
50,-0.458012736906511,0.916290731874155,-0.458012736906618,0,0,0,1.00026529324506,7.41073868937292e-15,0.116357617281439,7.41073868937292e-15,0,0,0,0.0279849141157384,0.00642579008096395
50.2,-0.456010232653785,0.912282710476616,-0.456010232653893,0,0,0,1.00026227955821,-1.25524590721682e-14,0.115035814230205,-1.25593979660721e-14,0,0,0,0.0276677230931741,0.00626048957221492
50.4,-0.453999650441196,0.908258560176891,-0.453999650441303,0,0,0,1.00025929290499,8.18789480661053e-16,0.113725868127076,8.32667268468867e-16,0,0,0,0.0273520343304358,0.00609792340252501
50.6,-0.451980925420431,0.904218150639886,-0.451980925420538,0,0,0,1.00025633264652,-1.22749033160119e-14,0.11242749876259,-1.22749033160119e-14,0,0,0,0.0270378495379419,0.00593803641300876
50.8,-0.449953991943733,0.900161349944271,-0.44995399194384,0,0,0,1.00025339815659,-1.37875821870637e-14,0.111140431479516,-1.37806432931598e-14,0,0,0,0.0267251704523212,0.00578077590389469
51,-0.447918783551458,0.896088024556636,-0.447918783551564,0,0,0,1.0002504888207,7.95891130778159e-15,0.109864396759199,7.9658502016855e-15,0,0,0,0.0264139988370688,0.00562609154122465
51.2,-0.445875232959313,0.89199803930511,-0.445875232959419,0,0,0,1.0002476040352,-2.37379560452666e-14,0.108599129838266,-2.37171393635549e-14,0,0,0,0.026104336483221,0.00547393527016607
51.4,-0.44382327204531,0.887891257352457,-0.443823272045417,0,0,0,1.00024474320646,-2.73878142387218e-14,0.107344370354704,-2.73947531326257e-14,0,0,0,0.0257961852100538,0.00532426123447078
51.6,-0.441762831836402,0.883767540168595,-0.441762831836508,0,0,0,1.00024190575016,1.73888681231915e-14,0.10609986202147,1.73888681231915e-14,0,0,0,0.0254895468658032,0.005177025701649
51.8,-0.4396938424948,0.879626747502564,-0.439693842494906,0,0,0,1.00023909109058,8.46545056276682e-16,0.104865352327247,8.46545056276682e-16,0,0,0,0.02518442332841,0.00503218699345565
52,-0.437616233303976,0.8754687373539,-0.437616233304083,0,0,0,1.00023629865997,-1.44398382140309e-14,0.103640592263744,-1.44398382140309e-14,0,0,0,0.0248808165062891,0.00488970542131508
52.2,-0.435529932654337,0.871293365943419,-0.435529932654443,0,0,0,1.00023352789803,-3.2016056472628e-14,0.102425336077821,-3.20299342604358e-14,0,0,0,0.0245787283391252,0.00474954322633359
52.4,-0.433434868028558,0.867100487683383,-0.433434868028665,0,0,0,1.00023077825137,8.90953977261688e-15,0.101219341048707,8.89566198480907e-15,0,0,0,0.0242781607986956,0.00461166452357282
52.6,-0.431330965986584,0.86288995514704,-0.43133096598669,0,0,0,1.00022804917303,2.86298762475212e-14,0.100022367288947,2.86298762475212e-14,0,0,0,0.0239791158897207,0.00447603525027581
52.8,-0.429218152150274,0.858661619037519,-0.42921815215038,0,0,0,1.00022534012214,3.48332473976143e-15,0.0988341775692992,3.49720252756924e-15,0,0,0,0.0236815956507455,0.00434262311775667
53,-0.427096351187692,0.854415328156068,-0.427096351187799,0,0,0,1.00022265056353,-1.53765888910584e-14,0.0976545371664762,-1.53835277849623e-14,0,0,0,0.0233856021550505,0.00421139756668088
53.2,-0.424965486797038,0.85015092936961,-0.424965486797145,0,0,0,1.00021997996747,2.87755930195033e-14,0.0964832137333688,2.87755930195033e-14,0,0,0,0.0230911375115958,0.00408232972547825
53.4,-0.422825481690198,0.845868267577609,-0.422825481690305,0,0,0,1.00021732780937,-9.91567938868343e-15,0.0953199771912622,-9.90874049477952e-15,0,0,0,0.0227982038659985,0.00395539237164405
53.6,-0.420676257575919,0.841567185678219,-0.420676257576025,0,0,0,1.00021469356964,-8.33361157859258e-15,0.0941645996444571,-8.34055047249649e-15,0,0,0,0.0225068034015453,0.00383055989569587
53.8,-0.418517735142591,0.837247524533702,-0.418517735142698,0,0,0,1.0002120767335,-1.24796006861772e-14,0.0930168553153111,-1.2493478473985e-14,0,0,0,0.0222169383402415,0.00370780826756572
54,-0.416349834040634,0.832909122935104,-0.416349834040741,0,0,0,1.00020947679093,6.61623533737554e-15,0.0918765205008997,6.56419363309624e-15,0,0,0,0.0219286109438982,0.00358711500521604
54.2,-0.414172472864474,0.828551817566148,-0.414172472864581,0,0,0,1.00020689323655,-2.42236786185401e-14,0.0907433735498017,-2.42271480654921e-14,0,0,0,0.0216418235152601,0.00346845914527858
54.4,-0.411985569134097,0.824175442966349,-0.411985569134203,0,0,0,1.00020432556968,2.91433543964104e-15,0.0896171948594887,2.9316826744008e-15,0,0,0,0.0213565783991737,0.00335182121552323
54.6,-0.409789039276185,0.819779831493312,-0.409789039276291,0,0,0,1.00020177329433,2.60104437987962e-14,0.088497766892803,2.60243215866041e-14,0,0,0,0.0210728779837995,0.00323718320897208
54.8,-0.407582798604804,0.815364813284195,-0.40758279860491,0,0,0,1.00019923591932,-1.68476343986868e-14,0.0873848742142366,-1.68406955047828e-14,0,0,0,0.0207907247018695,0.00312452855948142
55,-0.40536676130165,0.810930216216329,-0.405366761301757,0,0,0,1.00019671295838,-2.02199368359857e-14,0.0862783035450102,-2.02234062829376e-14,0,0,0,0.0205101210319915,0.00301384211862154
55.2,-0.403140840395835,0.806475865866948,-0.403140840395941,0,0,0,1.00019420393031,-2.5358187771829e-14,0.0851778438359643,-2.53616572187809e-14,0,0,0,0.0202310695000027,0.00290511013369036
55.4,-0.400904947743195,0.802001585472027,-0.400904947743301,0,0,0,1.00019170835923,1.37390099297363e-14,0.0840832863587338,1.37355404827844e-14,0,0,0,0.0199535726803746,0.00279832022670403
55.6,-0.398658994005126,0.797507195884188,-0.398658994005232,0,0,0,1.00018922577477,1.2642664692919e-14,0.0829944248136034,1.2642664692919e-14,0,0,0,0.0196776331976711,0.00269346137421305
55.8,-0.396402888626921,0.792992515529661,-0.396402888627027,0,0,0,1.00018675571239,-1.19869392189997e-14,0.0819110554542862,-1.19938781129036e-14,0,0,0,0.0194032537280625,0.00259052388779886
56,-0.394136539815601,0.78845736036427,-0.394136539815708,0,0,0,1.0001842977137,3.62175567314438e-14,0.0808329772282066,3.62175567314438e-14,0,0,0,0.0191304370008973,0.00248949939511164
56.2,-0.391859854517229,0.783901543828409,-0.391859854517335,0,0,0,1.00018185132679,-5.74887359938714e-15,0.0797599919314422,-5.74540415243519e-15,0,0,0,0.0188591858003345,0.00239038082131568
56.4,-0.389572738393691,0.779324876800998,-0.389572738393797,0,0,0,1.00017941610665,6.81052436668494e-15,0.0786919043787015,6.8139938136369e-15,0,0,0,0.018589502967039,0.00229316237081501
56.6,-0.387275095798934,0.774727167552368,-0.387275095799041,0,0,0,1.00017699161556,1.38777878078145e-17,0.0776285225854225,6.93889390390723e-18,0,0,0,0.0183213913999425,0.00219783950913737
56.8,-0.384966829754648,0.770108221696074,-0.384966829754754,0,0,0,1.00017457742354,1.5105972028806e-14,0.0765696579629538,1.51129109227099e-14,0,0,0,0.0180548540580725,0.0021044089448611
57,-0.382647841925371,0.765467842139571,-0.382647841925479,0,0,0,1.00017217310881,3.65679708735911e-15,0.0755151255243572,3.58740814832004e-15,0,0,0,0.0177898939624529,0.00201286861147539
57.2,-0.380318032593014,0.76080582903376,-0.38031803259312,0,0,0,1.00016977825832,-1.61121116448726e-14,0.0744647441005901,-1.61121116448726e-14,0,0,0,0.0175265141980783,0.00192321764907089
57.4,-0.377977300630777,0.756121979721334,-0.377977300630884,0,0,0,1.00016739246823,2.31967223207619e-14,0.0734183365653145,2.31932528738099e-14,0,0,0,0.0172647179159656,0.0018354563857641
57.6,-0.37562554347646,0.751416088683921,-0.375625543476566,0,0,0,1.00016501534443,-9.9850683277225e-15,0.0723757300669827,-9.95384330515492e-15,0,0,0,0.0170045083352857,0.0017495863187662
57.8,-0.373262657105129,0.746687947487975,-0.373262657105236,0,0,0,1.00016264650312,2.08860706507608e-14,0.0713367562677722,2.08999484385686e-14,0,0,0,0.0167458887455791,0.00166561009501335
58,-0.370888536001149,0.741937344729377,-0.370888536001256,0,0,0,1.00016028557133,-2.42826592167233e-14,0.0703012515861993,-2.4306945345387e-14,0,0,0,0.0164888625090581,0.00158353149128374
58.2,-0.368503073129537,0.73716406597672,-0.368503073129643,0,0,0,1.00015793218751,-2.06015760007006e-14,0.0692690574439876,-2.05946371067967e-14,0,0,0,0.0162334330629994,0.00150335539373356
58.4,-0.366106159906642,0.732367893713227,-0.366106159906749,0,0,0,1.00015558600208,-1.76976489019154e-14,0.0682400205135356,-1.76907100080115e-14,0,0,0,0.0159796039222311,0.00142508777679292
58.6,-0.363697686170127,0.727548607277278,-0.363697686170234,0,0,0,1.00015324667799,-4.74273398332059e-15,0.0672139929659823,-4.74273398332059e-15,0,0,0,0.0157273786817168,0.00134873568136997
58.8,-0.361277540148227,0.72270598280149,-0.361277540148334,0,0,0,1.00015091389128,-1.84852133600089e-14,0.0661908327171357,-1.84852133600089e-14,0,0,0,0.0154767610192427,0.00127430719232136
59,-0.358845608428272,0.717839793150317,-0.358845608428379,0,0,0,1.00014858733167,3.0146024565525e-14,0.0651704036701107,3.01494940124769e-14,0,0,0,0.0152277546982089,0.00120181141515512
59.2,-0.356401775924456,0.712949807856125,-0.356401775924563,0,0,0,1.00014626670304,2.40536757178944e-14,0.0641525759520634,2.40502062709425e-14,0,0,0,0.0149803635705313,0.00113125845194201
59.4,-0.353945925844824,0.708035793053696,-0.353945925844931,0,0,0,1.000143951724,1.16885667811317e-14,0.0631372261443567,1.16816278872278e-14,0,0,0,0.0147345915796581,0.00106265937642054
59.6,-0.351477939657468,0.703097511413114,-0.351477939657575,0,0,0,1.00014164212837,-2.86090595658095e-14,0.0621242375029351,-2.85778345432419e-14,0,0,0,0.0144904427637039,0.000996026208291205
59.8,-0.348997697055893,0.698134722070984,-0.348997697056,0,0,0,1.00013933766568,6.11663497629422e-15,0.0611135001680029,6.12010442324618e-15,0,0,0,0.0142479212587074,0.000931371886705641
60,-0.346505075923553,0.693147180559945,-0.346505075923659,0,0,0,1.0001370381016,-2.77555756156289e-16,0.0601049113600738,-2.84494650060196e-16,0,0,0,0.0140070313020174,0.000868710242966392
60.2,-0.343999952297506,0.688134638736401,-0.343999952297613,0,0,0,1.00013474321833,1.28820565326038e-14,0.0590983755616851,1.28751176386999e-14,0,0,0,0.0137677772358108,0.000808055972464864
60.4,-0.341482200331193,0.683096844706444,-0.3414822003313,0,0,0,1.00013245281505,2.10595429983584e-15,0.0580938046813783,2.1094237467878e-15,0,0,0,0.0135301635107486,0.000749424605895344
60.6,-0.33895169225629,0.678033542749897,-0.338951692256397,0,0,0,1.00013016670816,1.09530440273176e-14,0.0570911181991079,1.09530440273176e-14,0,0,0,0.0132941946897748,0.00069283247979463
60.8,-0.336408298343625,0.672944473242426,-0.336408298343732,0,0,0,1.00012788473162,-2.89698820488127e-15,0.0560902432902705,-2.89351875792931e-15,0,0,0,0.0130598754520641,0.000638296706469074
61,-0.333851886863117,0.667829372575655,-0.333851886863224,0,0,0,1.00012560673718,-2.04870842512861e-14,0.0550911149270846,-2.0497492592142e-14,0,0,0,0.0128272105971216,0.000585835143381948
61.2,-0.331282324042726,0.662687973075237,-0.331282324042833,0,0,0,1.00012333259452,1.08281439370472e-14,0.054093675954901,1.08350828309511e-14,0,0,0,0.012596205049044,0.000535466362087904
61.4,-0.328699474026369,0.657520002916794,-0.328699474026476,0,0,0,1.00012106219139,-1.05020159235636e-14,0.0530978771415656,-1.05124242644195e-14,0,0,0,0.012366863860944,0.000487209616812684
61.6,-0.326103198830776,0.65232518603969,-0.326103198830883,0,0,0,1.00011879543365,-6.60235754956773e-15,0.0521036771986639,-6.59541865566382e-15,0,0,0,0.0121391922195466,0.000441084812791083
61.8,-0.323493358301262,0.647103242058539,-0.323493358301369,0,0,0,1.00011653224526,1.78156100982818e-14,0.0511110427717227,1.78086712043779e-14,0,0,0,0.0119131954499625,0.000397112474489341
62,-0.320869810066366,0.641853886172395,-0.320869810066473,0,0,0,1.00011427256817,-3.40803774090404e-14,0.0501199483984483,-3.40769079620884e-14,0,0,0,0.0116888790206438,0.000355313713853387
62.2,-0.318232409491335,0.636576829071551,-0.318232409491442,0,0,0,1.00011201636214,1.32463484625589e-14,0.0491303764333988,1.32463484625589e-14,0,0,0,0.0114662485485306,0.000315710198740415
62.4,-0.315581009630415,0.631271776841858,-0.315581009630521,0,0,0,1.00010976360451,-3.26474958178835e-15,0.0481423169360397,-3.24046345312468e-15,0,0,0,0.0112453098043931,0.000278324121708589
62.6,-0.312915461177899,0.625938430866495,-0.312915461178006,0,0,0,1.00010751428984,-1.67990621413594e-14,0.0471557675226473,-1.67921232474555e-14,0,0,0,0.011026068718376,0.000243178169359292
62.8,-0.310235612417918,0.62057648772511,-0.310235612418025,0,0,0,1.0001052684295,-7.05165092984572e-15,0.046170733178317,-7.04471203594181e-15,0,0,0,0.0108085313857537,0.000210295492448519
63,-0.307541309172905,0.615185639090233,-0.307541309173011,0,0,0,1.00010302605114,7.92768628521401e-16,0.0451872260283899,8.06646416329215e-16,0,0,0,0.010592704072901,0.000179699677010261
63.2,-0.30483239475071,0.609765571620894,-0.304832394750817,0,0,0,1.00010078719806,1.57686363966292e-15,0.0442052650670937,1.57165946923499e-15,0,0,0,0.0103785932234876,0.000151414716766837
63.4,-0.302108709890322,0.60431596685333,-0.302108709890428,0,0,0,1.0000985519285,9.77343206365333e-15,0.0432248758409332,9.84629044964436e-15,0,0,0,0.0101662054649036,0.000125464987141691
63.6,-0.299370092706136,0.598836501088704,-0.299370092706243,0,0,0,1.00009632031483,-3.02518426975595e-14,0.042246090083856,-3.02449038036556e-14,0,0,0,0.00995554761492321,0.000101875221243679
63.8,-0.296616378630749,0.593326845277734,-0.296616378630856,0,0,0,1.00009409244255,-2.39495923093358e-14,0.041268945300573,-2.39183672867682e-14,0,0,0,0.00974662668861333,8.0670488266296e-05
64,-0.293847400356209,0.587786664902119,-0.293847400356317,0,0,0,1.00009186840924,2.59427895832332e-14,0.0402934842913087,2.59098298371896e-14,0,0,0,0.00953944990549588,6.1876174852676e-05
64.2,-0.291062987773703,0.582215619852664,-0.291062987773809,0,0,0,1.00008964832332,-9.76302372279747e-15,0.0393197546092095,-9.76302372279747e-15,0,0,0,0.00933402469697065,4.55179701427156e-05
64.4,-0.288262967911617,0.576613364303994,-0.288262967911726,0,0,0,1.00008743230263,5.66907631949221e-15,0.0383478079343235,5.67428048992014e-15,0,0,0,0.00913035871400683,3.16218554874223e-05
64.6,-0.285447164871986,0.570979546585738,-0.285447164872097,0,0,0,1.00008522047271,-1.85042953182446e-14,0.0373776993322895,-1.85025605947686e-14,0,0,0,0.00892845983511163,2.02141002903809e-05
64.8,-0.282615399765297,0.56531380905006,-0.282615399765407,0,0,0,1.00008301296474,6.52602971662475e-15,0.0364094863355368,6.51909082272084e-15,0,0,0,0.00872833617458458,1.13212663539222e-05
65,-0.279767490643805,0.559615787935423,-0.279767490643912,0,0,0,1.00008080991265,-2.79481299214623e-14,0.0354432276885034,-2.79446604745104e-14,0,0,0,0.00852999609106852,4.97022514165906e-06
65.2,-0.276903252433838,0.553885113226438,-0.276903252433945,0,0,0,1.00007861144837,-1.99319727389735e-15,0.0344789812562365,-2.01054450865712e-15,0,0,0,0.00833344819641368,1.18819794294719e-06
65.4,-0.274022496870974,0.548121408509687,-0.27402249687108,0,0,0,1.00007641768732,-4.97935026544383e-14,0.0335167976571063,-4.97900332074863e-14,0,0,0,0.00813870136492668,2.85347880665023e-09
65.6,-0.271125032393606,0.542324290825362,-0.271125032393713,0,0,0,1.00007422879286,7.10889680455296e-15,0.0325567485495059,7.11410097498089e-15,0,0,0,0.00794576474228946,1.44240134277489e-06
65.8,-0.26821066403639,0.536493370514568,-0.268210664036497,0,0,0,1.0000720450368,3.95100618888478e-14,0.0315989531405594,3.94805715897562e-14,0,0,0,0.00775464775484896,5.53469776181481e-06
66,-0.265279193417324,0.53062825106217,-0.265279193417429,0,0,0,1.00006986666798,9.70057367766231e-15,0.0306435205756827,9.69710423071035e-15,0,0,0,0.00756536012078787,1.23068695928446e-05
66.2,-0.262330418653076,0.524728528934982,-0.262330418653181,0,0,0,1.00006769391986,3.67379737742368e-14,0.0296905532485023,3.66946056873374e-14,0,0,0,0.00737791186049122,2.17854868827216e-05
66.4,-0.259364134273906,0.518793793415167,-0.259364134274009,0,0,0,1.00006552701405,-1.87419524344534e-14,0.0287401483638983,-1.87367482640255e-14,0,0,0,0.00719231330729143,3.39966502696468e-05
66.6,-0.256380131137726,0.512823626428664,-0.256380131137828,0,0,0,1.00006336616066,2.91086599268908e-15,0.027792398065346,2.91260071616506e-15,0,0,0,0.00700857511859199,4.89660511837587e-05
66.8,-0.253378196342131,0.506817602368452,-0.253378196342236,0,0,0,1.00006121155744,-2.67875999160339e-14,0.0268473890916256,-2.67806610221299e-14,0,0,0,0.0068267082873589,6.67190228500394e-05
67,-0.250358113133997,0.500775287912489,-0.250358113134101,0,0,0,1.00005906338856,5.87377368965747e-15,0.0259052022242493,5.91193760612896e-15,0,0,0,0.00664672415398185,8.72805887578911e-05
67.2,-0.24731966081643,0.494696241836107,-0.247319660816533,0,0,0,1.00005692182313,-2.08236206056256e-14,0.0249659116248093,-2.08253553291016e-14,0,0,0,0.00646863441851007,0.000110675511826848
67.4,-0.244262614652919,0.488580014818671,-0.244262614653023,0,0,0,1.00005478701348,1.31162442018606e-14,0.0240295841133467,1.31179789253366e-14,0,0,0,0.00629245115326841,0.000136928346086359
67.6,-0.241186745768561,0.482426149244293,-0.241186745768663,0,0,0,1.00005265909351,-1.78849990373209e-15,0.0230962784136547,-1.70956998557514e-15,0,0,0,0.00611818681585963,0.000166063491998556
67.8,-0.238091821048193,0.476234178996372,-0.238091821048296,0,0,0,1.00005053817689,-8.81239525796218e-16,0.0221660443851451,-8.75167993630299e-16,0,0,0,0.00594585426255853,0.000198105256173477
68,-0.234977603031357,0.470003629245735,-0.23497760303146,0,0,0,1.00004842435534,-3.98379246258074e-15,0.0212389222523384,-3.98032301562878e-15,0,0,0,0.00577546676210359,0.000233077915996106
68.2,-0.231843849803905,0.46373401623214,-0.231843849804007,0,0,0,1.00004631769686,3.89358684182994e-15,0.0203149418426562,3.88925003314e-15,0,0,0,0.0056070380098913,0.000271005789535092
68.4,-0.22869031488616,0.457424847038875,-0.228690314886265,0,0,0,1.00004421824405,7.06899816460549e-16,0.0193941218397873,7.37257477290143e-16,0,0,0,0.00544058214257836,0.00031191331099818
68.6,-0.225516747117471,0.451075619360217,-0.225516747117574,0,0,0,1.00004212601245,1.39280947886178e-14,0.0184764690596243,1.39280947886178e-14,0,0,0,0.00527611375309636,0.000355825111922689
68.8,-0.222322890537004,0.444685821261446,-0.222322890537109,0,0,0,1.00004004098895,-1.12791720408012e-14,0.017561977754197,-1.12843762112291e-14,0,0,0,0.00511364790608326,0.00040276610822956
69,-0.219108484260668,0.438254930931155,-0.219108484260769,0,0,0,1.0000379631303,-7.50094431012371e-15,0.0166506289493128,-7.49747486317176e-15,0,0,0,0.00495320015373593,0.000452761593221916
69.2,-0.21587326235395,0.431782416425538,-0.215873262354053,0,0,0,1.00003589236165,-4.19716345012588e-15,0.0157423898197581,-4.18502038579405e-15,0,0,0,0.004794786552087,0.000505837336569332
69.4,-0.212616953700582,0.425267735404344,-0.21261695370068,0,0,0,1.00003382857526,-8.89219253785711e-15,0.0148372131069686,-8.88872309090516e-15,0,0,0,0.00463842367770962,0.000562019689285353
69.6,-0.209339281866779,0.418710334858185,-0.209339281866879,0,0,0,1.00003177162923,-6.06025646332498e-15,0.013935036582415,-6.07066480418084e-15,0,0,0,0.00448412864485301,0.000621335694676887
69.8,-0.206039964960968,0.412109650826833,-0.206039964961069,0,0,0,1.00002972134647,2.51708376364235e-15,0.0130357825600579,2.51621640190436e-15,0,0,0,0.00433191912301102,0.000683813205218635
70,-0.202718715488745,0.405465108108164,-0.202718715488845,0,0,0,1.00002767751359,1.41293227118311e-15,0.012139357460818,1.41900380334903e-15,0,0,0,0.0041818133549266,0.000749481005283596
70.2,-0.19937524020291,0.398776119957368,-0.199375240203009,0,0,0,1.00002563988014,9.43819675192081e-15,0.0112456514314957,9.44166619887277e-15,0,0,0,0.00403383017503332,0.000818368939641694
70.4,-0.196009239948387,0.392042087776023,-0.196009239948485,0,0,0,1.00002360815782,-1.07149532302397e-14,0.0103545380199654,-1.07205910815367e-14,0,0,0,0.00388798902833612,0.000890508047621042
70.6,-0.19262040950179,0.385262400790645,-0.192620409501888,0,0,0,1.00002158201986,5.0038098664551e-15,0.0094658739085994,4.99773833428918e-15,0,0,0,0.00374430998973259,0.000965930702812983
70.8,-0.189208437405451,0.378436435720245,-0.189208437405548,0,0,0,1.00001956110056,2.55160476081429e-14,0.0085794987064441,2.55420684602825e-14,0,0,0,0.00360281378377578,0.00104467075818932
71,-0.185773005795655,0.371563556432483,-0.185773005795752,0,0,0,1.00001754499499,2.72711540849624e-14,0.0076952348014705,2.72902360431981e-14,0,0,0,0.00346352180488014,0.00112676369649075
71.2,-0.182313790224868,0.364643113587909,-0.182313790224965,0,0,0,1.00001553325872,-2.98073198068405e-14,0.00681288727268033,-2.98003809129366e-14,0,0,0,0.0033264561379712,0.00121224678573877
71.4,-0.178830459477692,0.357674444271816,-0.178830459477789,0,0,0,1.0000135254078,2.5506506629025e-14,0.00593224386218655,2.5503904543811e-14,0,0,0,0.00319163957958072,0.00130115923971772
71.6,-0.175322675380296,0.350656871613169,-0.175322675380393,0,0,0,1.00001152091885,3.35233143328173e-14,0.00505307500551475,3.35215796093413e-14,0,0,0,0.00305909565938832,0.00139354238327227
71.8,-0.171790092603051,0.343589704390077,-0.171790092603148,0,0,0,1.00000951922919,2.11779378755939e-14,0.00417513392074988,2.11779378755939e-14,0,0,0,0.00292884866221174,0.00148943982226507
72,-0.168232358456075,0.336472236621213,-0.168232358456172,0,0,0,1.00000751973724,3.33567808791235e-14,0.00329815675310628,3.33567808791235e-14,0,0,0,0.00280092365044781,0.00158889761804283
72.2,-0.1646491126774,0.3293037471426,-0.164649112677496,0,0,0,1.00000552180295,2.59496200569198e-14,0.00242186277352271,2.59418138012779e-14,0,0,0,0.00267534648696727,0.00169196446626469
72.4,-0.161039987213436,0.322083499169113,-0.161039987213533,0,0,0,1.00000352474836,7.72331417570049e-15,0.00154595462886219,7.75714128348204e-15,0,0,0,0.00255214385846729,0.00179869187995481
72.6,-0.157404605991414,0.314810739840034,-0.15740460599151,0,0,0,1.00000152785828,2.31519447710382e-14,0.000670118640248614,2.31519447710382e-14,0,0,0,0.00243134329928689,0.00190913437665329
72.8,-0.153742584683442,0.307484699747961,-0.153742584683539,0,0,0,0.99999953038109,-2.64300706971296e-14,-0.000205974853962564,-2.64075192919419e-14,0,0,0,0.00231297321569166,0.00202334966955351
73,-0.15005353046184,0.300104592450338,-0.150053530461936,0,0,0,0.999997531529608,1.78220611012081e-14,-0.00108267111376368,1.7828999995112e-14,0,0,0,0.002197062910636,0.00214139886253153
73.2,-0.146337041745337,0.29266961396282,-0.146337041745432,0,0,0,0.99999553048204,2.458699476654e-14,-0.00196033057748234,2.46728635786009e-14,0,0,0,0.00208364260901344,0.00226334664899444
73.4,-0.142592707935752,0.285178942233662,-0.142592707935847,0,0,0,0.999993526383017,2.2778003441748e-14,-0.0028393284089474,2.28673417007608e-14,0,0,0,0.00197274348340731,0.00238926151449839
73.6,-0.138820109144731,0.27763173659828,-0.138820109144827,0,0,0,0.999991518344691,-3.21032263272958e-15,-0.00372005401856022,-3.17996497189998e-15,0,0,0,0.00186439768035771,0.00251921594311397
73.8,-0.135018815910079,0.27002713721306,-0.135018815910175,0,0,0,0.999989505447874,1.90680804479371e-14,-0.00460291056268932,1.90646110009851e-14,0,0,0,0.00175863834716346,0.00265328662754847
74,-0.131188388901238,0.262364264467491,-0.131188388901334,0,0,0,0.999987486743211,-2.28040242938876e-14,-0.0054883144278405,-2.27511152278703e-14,0,0,0,0.00165549965924176,0.00279155468306741
74.2,-0.127328378613395,0.254642218373581,-0.127328378613491,0,0,0,0.999985461252384,-1.84886828069608e-14,-0.00637669470450113,-1.85407245112401e-14,0,0,0,0.00155501684807231,0.00293410586529674
74.4,-0.123438325049716,0.246860077931525,-0.123438325049812,0,0,0,0.999983427969315,3.52569536066216e-14,-0.0072684926582935,3.52465452657658e-14,0,0,0,0.00145722622975804,0.00308103079202696
74.6,-0.119517757391141,0.2390169004705,-0.119517757391236,0,0,0,0.999981385861369,2.14273043752655e-14,-0.00816416120380452,2.14342432691694e-14,0,0,0,0.00136216523423963,0.00323242516918587
74.8,-0.115566193653157,0.231111720963387,-0.115566193653252,0,0,0,0.999979333870525,4.00846890402651e-14,-0.00906416438763983,4.00842553593961e-14,0,0,0,0.00126987243520747,0.0033883900211942
75,-0.111583140328948,0.22314355131421,-0.111583140329044,0,0,0,0.999977270914527,5.11483216891762e-15,-0.00996897688849968,5.12220474369052e-15,0,0,0,0.00118038758076182,0.00354903192596937
75.2,-0.107568092018257,0.215111379616945,-0.107568092018353,0,0,0,0.999975195887963,1.78247173965307e-14,-0.0108790835395525,1.78164774600198e-14,0,0,0,0.00109375162487926,0.00371446325489805
75.4,-0.103520531041273,0.207014169384326,-0.103520531041369,0,0,0,0.999973107663289,-1.85129689356245e-14,-0.0117949788814775,-1.85155710208385e-14,0,0,0,0.00101000675975266,0.00388480241815529
75.6,-0.0994399270368322,0.198850858745165,-0.0994399270369276,0,0,0,0.999971005091766,7.29537957822046e-15,-0.012717166751468,7.30231847212437e-15,0,0,0,0.000929196449080782,0.00406017411580894
75.8,-0.0953257365441396,0.19062035960865,-0.0953257365442354,0,0,0,0.999968887004294,-3.03724059791399e-14,-0.0136461599166472,-3.04027636399695e-14,0,0,0,0.000851365462394959,0.00424070959521301
76,-0.0911774025672212,0.182321556793955,-0.0911774025673167,0,0,0,0.999966752212137,9.35015953551499e-16,-0.0145824797568403,9.31546506599545e-16,0,0,0,0.000776559910520809,0.00442654691525907
76.2,-0.0869943541212219,0.173953307123438,-0.0869943541213162,0,0,0,0.999964599507512,-2.33060098997484e-15,-0.0155266560052625,-2.25080371007991e-15,0,0,0,0.00070482728228645,0.00461783121812606
76.4,-0.0827760057596475,0.165514438477573,-0.0827760057597428,0,0,0,0.999962427664041,5.70637287422571e-15,-0.0164792265517368,5.69596453336985e-15,0,0,0,0.000636216482601828,0.00481471500923989
76.6,-0.0785217570815827,0.157003748809665,-0.0785217570816778,0,0,0,0.999960235437036,1.41033018596914e-15,-0.0174407373162352,1.40859546249317e-15,0,0,0,0.000570777872049011,0.00501735844623048
76.8,-0.0742309922178406,0.148420005118273,-0.0742309922179358,0,0,0,0.999958021563616,5.11743425413158e-17,-0.0184117421979175,4.59701721133854e-17,0,0,0,0.000508563308139614,0.00522592963775
77,-0.0699030792949728,0.139761942375159,-0.069903079295068,0,0,0,0.99995578476264,1.32316033130131e-14,-0.0193928031060159,1.32281338660611e-14,0,0,0,0.000449626188412916,0.00544060495309697
77.2,-0.0655373698759658,0.131028262406404,-0.065537369876061,0,0,0,0.999953523734432,-2.44197023713255e-14,-0.0203844900780646,-2.44179676478495e-14,0,0,0,0.000394021495567448,0.00566156934367165
77.4,-0.0611331983763974,0.122217632724249,-0.0611331983764929,0,0,0,0.999951237160304,-6.24673923699248e-15,-0.0213873814904648,-6.28056634477403e-15,0,0,0,0.00034180584483927,0.00588901667737321
77.6,-0.0566898814547461,0.113328685307003,-0.0566898814548429,0,0,0,0.999948923701853,-1.11889664200504e-14,-0.0224020643673693,-1.11802928026705e-14,0,0,0,0.000293037533862258,0.00612315008713404
77.8,-0.052206717375462,0.104360015324243,-0.0522067173755535,0,0,0,0.99994658200002,-2.23423710088433e-14,-0.0234291347913971,-2.23397689236293e-14,0,0,0,0.000247776595269449,0.00636418233487626
78,-0.047682985343302,0.0953101798043247,-0.0476829853433917,0,0,0,0.999944210673913,2.3108251423487e-14,-0.0244691984215936,2.31221292112949e-14,0,0,0,0.00020608485231983,0.00661233619226189
78.2,-0.0431179448073983,0.0861776962410522,-0.0431179448074817,0,0,0,0.999941808319374,1.83880688453542e-15,-0.0255228711226339,1.85094994886725e-15,0,0,0,0.000168025977862343,0.00686784483970432
78.4,-0.0385108347333136,0.076961041136128,-0.0385108347333973,0,0,0,0.999939373507277,1.26825633328664e-14,-0.0265907797082764,1.26808286093905e-14,0,0,0,0.000133665556977729,0.00713095228519848
78.6,-0.0338608728413758,0.0676586484738151,-0.0338608728414579,0,0,0,0.999936904781568,-2.48082804299443e-14,-0.0276735628040585,-2.48238929412281e-14,0,0,0,0.000103071153670126,0.00740191380462395
78.8,-0.029167254809302,0.0582689081239758,-0.0291672548093844,0,0,0,0.99993440065702,2.1838433839072e-14,-0.028771871830879,2.17569018357011e-14,0,0,0,7.63123820132227e-05,0.00768099640527236
79,-0.0244291534371547,0.0487901641694318,-0.0244291534372356,0,0,0,0.999931859616703,-1.74513181683267e-15,-0.0298863721141336,-1.7503359872606e-15,0,0,0,5.34609821913495e-05,0.00796847931444845
79.2,-0.0196457177724008,0.0392207131532811,-0.0196457177724822,0,0,0,0.999929280109167,5.87203896618149e-15,-0.0310177441192018,5.87377368965747e-15,0,0,0,3.45909019129351e-05,0.00826465449509615
79.4,-0.0148160721927945,0.029558802241544,-0.0148160721928877,0,0,0,0.999926660545331,-3.67934849254681e-15,-0.0321666848177806,-3.68975683340267e-15,0,0,0,1.97783837144391e-05,0.00856982719050308
79.6,-0.00993931544461321,0.0198026272961799,-0.00993931544470471,0,0,0,0.999923999295062,-3.2982297448747e-14,-0.0333339091858216,-3.28886223810443e-14,0,0,0,9.10205871469862e-06,0.00888431650024122
79.8,-0.00501451963352292,0.00995033085316809,-0.00501451963361464,0,0,0,0.999921294683456,-4.64732419214187e-15,-0.0345201518359811,-4.64905891561784e-15,0,0,0,2.64304742542586e-06,0.00920845598960886
80,-4.07291653708977e-05,0,-4.07291654623838e-05,0,0,0,0.999918544986806,9.29811783123569e-16,-0.0357261687866996,9.28077059647592e-16,0,0,0,4.85068271439196e-07,0.00954259433494658
