t,LE11,LE22,LE33,LE12,LE13,LE23,J,S11,S22,S33,S12,S13,S23,psiE,psiNE
0,0,0,0,0,0,0,1,0,0,0,0,0,0,0,0
0.2,0.00995033085316809,-0.0198896732812865,0.00995033085316809,0,0,0,1.00001098848542,0.00240977485318097,3.05764528280017e-14,0.00240977485318097,0,0,0,8.63028462795498e-06,1.54147860893583e-05
0.4,0.0198026272961797,-0.0395836299585459,0.0198026272961797,0,0,0,1.00002162486763,0.00474233347077599,-4.72490969960493e-14,0.00474233347077599,0,0,0,3.39602304554749e-05,6.05018699297247e-05
0.6,0.0295588022415444,-0.0590856986954461,0.0295588022415444,0,0,0,1.00003190629664,0.00699705085269677,-3.19215140431872e-14,0.00699705085269677,0,0,0,7.51838598154527e-05,0.000133513439689452
0.8,0.0392207131532813,-0.0783995921303261,0.0392207131532813,0,0,0,1.0000418350513,0.00917442674966944,-6.71337985203024e-15,0.00917442674966944,0,0,0,0.000131540303392292,0.00023271606871046
1,0.048790164169432,-0.0975289112597974,0.048790164169432,0,0,0,1.00005141840095,0.0112760553277577,4.36890107424759e-14,0.0112760553277577,0,0,0,0.000202311402875261,0.000356420375738502
1.2,0.0582689081239758,-0.116477149799184,0.0582689081239758,0,0,0,1.00006066828901,0.0133045557807966,-1.93265542458576e-14,0.0133045557807966,0,0,0,0.000286819504999106,0.000503004837571114
1.4,0.0676586484738149,-0.135247698573154,0.0676586484738149,0,0,0,1.0000696007965,0.0152634546720977,1.41449352231149e-14,0.0152634546720977,0,0,0,0.000384425409625543,0.000670934588310001
1.6,0.0769610411361284,-0.153843849887555,0.0769610411361284,0,0,0,1.00007823544493,0.0171570330740849,-1.29445065777389e-14,0.0171570330740849,0,0,0,0.000494526442514381,0.000858775299160583
1.8,0.0861776962410524,-0.172268801819624,0.0861776962410524,0,0,0,1.00008659441156,0.0189901544551142,-1.07899800205757e-14,0.0189901544551142,0,0,0,0.000616554630395975,0.00106520229900318
2,0.0953101798043249,-0.190525662370039,0.0953101798043249,0,0,0,1.00009470172254,0.0207680877521028,-5.9535709695524e-14,0.0207680877521028,0,0,0,0.000749974961725384,0.00128900528461596
2.2,0.104360015324243,-0.20861745343288,0.104360015324243,0,0,0,1.00010258247683,0.022496337168402,2.26572233197331e-14,0.022496337168402,0,0,0,0.00089428372112233,0.00152908913263405
2.4,0.113328685307003,-0.22654711455376,0.113328685307003,0,0,0,1.00011026213867,0.0241804870102398,-4.01484401280072e-14,0.0241804870102398,0,0,0,0.00104900688910325,0.00178447142773178
2.6,0.122217632724249,-0.244317506459666,0.122217632724249,0,0,0,1.00011776592269,0.0258260668469081,1.88737914186277e-15,0.0258260668469081,0,0,0,0.00121369860144458,0.0020542773624575
2.8,0.131028262406404,-0.261931414355473,0.131028262406404,0,0,0,1.00012511828398,0.0274384396757688,-9.58608192824784e-15,0.0274384396757688,0,0,0,0.00138793966453146,0.00233773265476789
3,0.139761942375159,-0.279391550991019,0.139761942375159,0,0,0,1.0001323425158,0.0290227137142396,2.24334439913321e-14,0.0290227137142396,0,0,0,0.00157133612448692,0.00263415508373485
3.2,0.148420005118273,-0.296700559509245,0.148420005118273,0,0,0,1.00013946045101,0.0305836769056276,2.08895400977127e-14,0.0305836769056276,0,0,0,0.00176351788886402,0.00294294517553064
3.4,0.157003748809665,-0.313861016090221,0.157003748809665,0,0,0,1.00014649225805,0.0321257521905912,-2.80817036291126e-14,0.0321257521905912,0,0,0,0.00196413740032235,0.00326357649177975
3.6,0.165514438477573,-0.330875432408393,0.165514438477573,0,0,0,1.00015345631997,0.0336529709694431,6.1409211049579e-16,0.0336529709694431,0,0,0,0.00217286836208407,0.00359558588921158
3.8,0.173953307123438,-0.347746257921377,0.173953307123438,0,0,0,1.00016036918326,0.0351689618893269,1.51267887105178e-14,0.0351689618893269,0,0,0,0.0023894045151404,0.00393856403925911
4,0.182321556793955,-0.364475882008503,0.182321556793955,0,0,0,1.00016724556339,0.0366769520507073,2.01574867908505e-14,0.0366769520507073,0,0,0,0.0026134584672125,0.00429214642271501
4.2,0.19062035960865,-0.381066635976403,0.19062035960865,0,0,0,1.00017409839426,0.0381797778618503,-1.20112253476634e-14,0.0381797778618503,0,0,0,0.00284476057340097,0.00465600494998136
4.4,0.198850858745165,-0.397520794947525,0.198850858745165,0,0,0,1.00018093891028,0.0396799030235331,5.16253706450698e-15,0.0396799030235331,0,0,0,0.00308305786832225,0.00502984030277942
4.6,0.207014169384326,-0.413840579645739,0.207014169384326,0,0,0,1.00018777675076,0.041179441441761,-4.75799954990919e-14,0.041179441441761,0,0,0,0.00332811304935134,0.00541337504847783
4.8,0.215111379616945,-0.430028158091435,0.215111379616945,0,0,0,1.00019462007849,0.0426801832122083,-5.8043847506184e-15,0.0426801832122083,0,0,0,0.00357970351039117,0.0058063475429066
5,0.22314355131421,-0.44608564721668,0.22314355131421,0,0,0,1.00020147570524,0.0441836221599075,2.4980018054066e-16,0.0441836221599075,0,0,0,0.00383762042538304,0.00620850661074666
5.2,0.231111720963387,-0.462015114409376,0.231111720963387,0,0,0,1.00020834921908,0.0456909837446582,-1.2417150641042e-14,0.0456909837446582,0,0,0,0.00410166788057357,0.0066196069732181
5.4,0.2390169004705,-0.477818578993784,0.2390169004705,0,0,0,1.00021524510912,0.0472032524301263,-4.08770239879175e-14,0.0472032524301263,0,0,0,0.00437166205436767,0.0070394053796705
5.6,0.246860077931526,-0.493498013653506,0.246860077931526,0,0,0,1.00022216688495,0.0487211978702817,-2.12607709215717e-14,0.0487211978702817,0,0,0,0.00464743044343149,0.00746765739165758
5.8,0.254642218373581,-0.509055345801811,0.254642218373581,0,0,0,1.00022911718869,0.0502453994786426,-3.84761666971656e-14,0.0502453994786426,0,0,0,0.00492881113356617,0.00790411476408718
6,0.262364264467491,-0.524492458903296,0.262364264467491,0,0,0,1.00023609789841,0.0517762691210506,-8.22397705491085e-14,0.0517762691210506,0,0,0,0.00521565211375619,0.00834852336711092
6.2,0.27002713721306,-0.539811193750055,0.27002713721306,0,0,0,1.00024311022257,0.0533140718088809,-4.10990685928425e-14,0.0533140718088809,0,0,0,0.0055078106317025,0.00880062159372945
6.4,0.27763173659828,-0.555013349694937,0.27763173659828,0,0,0,1.00025015478511,0.0548589443753051,-3.42087469462626e-14,0.0548589443753051,0,0,0,0.0058051525890831,0.00926013920093118
6.6,0.285178942233662,-0.570100685843969,0.285178942233662,0,0,0,1.00025723170176,0.0564109121953977,-4.8919202022546e-14,0.0564109121953977,0,0,0,0.00610755197473881,0.00972679653597298
6.8,0.29266961396282,-0.585074922209674,0.29266961396282,0,0,0,1.0002643406478,0.0579699040622804,3.64847041467442e-14,0.0579699040622804,0,0,0,0.00641489033395794,0.0102003041037055
7,0.300104592450338,-0.599937740826727,0.300104592450338,0,0,0,1.00027148091823,0.0595357653667948,-3.74492103993873e-14,0.0595357653667948,0,0,0,0.00672705627202901,0.0106803624352797
7.2,0.307484699747961,-0.61469078683119,0.307484699747961,0,0,0,1.00027865148084,0.0611082697491388,-2.857436509629e-14,0.0611082697491388,0,0,0,0.0070439449902433,0.0111666622228835
7.4,0.314810739840034,-0.629335669504462,0.314810739840034,0,0,0,1.00028585102323,0.0626871293932628,-2.35922392732846e-16,0.0626871293932628,0,0,0,0.0073654578525544,0.0116588846891669
7.6,0.322083499169113,-0.643873963282942,0.322083499169113,0,0,0,1.00029307799425,0.0642720041391668,2.87894708073111e-14,0.0642720041391668,0,0,0,0.00769150198114131,0.0121567021635927
7.8,0.3293037471426,-0.658307208734399,0.3293037471426,0,0,0,1.00030033064102,0.0658625095759406,1.5258627694692e-14,0.0658625095759406,0,0,0,0.00802198987916954,0.012659778841032
8,0.336472236621213,-0.672636913501965,0.336472236621213,0,0,0,1.00030760704181,0.067458224268352,-1.21638810135494e-14,0.067458224268352,0,0,0,0.00835683907910043,0.0131677717004793
8.2,0.343589704390077,-0.686864553216693,0.343589704390077,0,0,0,1.00031490513568,0.0690586962539381,-4.05925293378573e-14,0.0690586962539381,0,0,0,0.00869597181496146,0.0136803315637866
8.4,0.350656871613169,-0.700991572379592,0.350656871613169,0,0,0,1.00032222274935,0.0706634489318671,1.13103970633688e-14,0.0706634489318671,0,0,0,0.00903931471705594,0.0141971042758496
8.6,0.357674444271816,-0.715019385214079,0.357674444271816,0,0,0,1.00032955762174,0.0722719864469899,-2.05807593189888e-14,0.0722719864469899,0,0,0,0.00938679852766039,0.0147177319887476
8.8,0.364643113587909,-0.728949376489762,0.364643113587909,0,0,0,1.00033690742662,0.0738837986575591,6.2380656196126e-15,0.0738837986575591,0,0,0,0.00973835783632812,0.0152418545330224
9,0.371563556432483,-0.742782902318526,0.371563556432483,0,0,0,1.00034426979369,0.0754983657557402,-4.00304789316408e-14,0.0754983657557402,0,0,0,0.010093930833489,0.0157691108596226
9.2,0.378436435720245,-0.75652129092385,0.378436435720245,0,0,0,1.00035164232831,0.077115162599226,7.66053886991358e-15,0.077115162599226,0,0,0,0.010453459081107,0.0162991405361354
9.4,0.385262400790645,-0.770165843384334,0.385262400790645,0,0,0,1.00035902263016,0.0787336627938279,1.84574577843932e-14,0.0787336627938279,0,0,0,0.0108168872992264,0.0168315852808322
9.6,0.392042087776024,-0.783717834352377,0.392042087776024,0,0,0,1.0003664083108,0.0803533425589735,-2.81649703559594e-14,0.0803533425589735,0,0,0,0.0111841631673072,0.0173660905178592
9.8,0.398776119957368,-0.797178512748975,0.398776119957368,0,0,0,1.00037379701046,0.0819736843934818,-7.05407954271209e-14,0.0819736843934818,0,0,0,0.0115552371393154,0.0179023069366769
10,0.405465108108164,-0.810549102435589,0.405465108108164,0,0,0,1.00038118641382,0.0835941805514677,3.11070613712161e-14,0.0835941805514677,0,0,0,0.0119300622716,0.0184398920386655
10.2,0.412109650826833,-0.823830802864027,0.412109650826833,0,0,0,1.00038857426507,0.0852143363293345,-3.99194566291783e-14,0.0852143363293345,0,0,0,0.0123085940626479,0.0189785116537334
10.4,0.418710334858185,-0.837024789705255,0.418710334858185,0,0,0,1.00039595838195,0.0868336731611303,1.16226472890446e-14,0.0868336731611303,0,0,0,0.0126907903038692,0.019517841409852
10.6,0.425267735404344,-0.850132215458071,0.425267735404344,0,0,0,1.00040333666899,0.0884517315088029,2.3113455593915e-14,0.0884517315088029,0,0,0,0.0130766109406204,0.0200575681387428
10.8,0.431782416425538,-0.863154210038487,0.431782416425538,0,0,0,1.00041070712968,0.0900680735379519,-3.35703687071032e-14,0.0900680735379519,0,0,0,0.0134660179427253,0.0205973912014943
11,0.438254930931155,-0.876091881350719,0.438254930931155,0,0,0,1.00041806787762,0.091682285561581,-4.48946435582798e-15,0.091682285561581,0,0,0,0.0138589751838075,0.0211370237187273
11.2,0.444685821261446,-0.888946315840572,0.444685821261446,0,0,0,1.00042541714654,0.0932939802357899,3.03021496783629e-14,0.0932939802357899,0,0,0,0.0142554483287907,0.0216761936910553
11.4,0.451075619360217,-0.901718579032036,0.451075619360217,0,0,0,1.0004327532991,0.0949027984926844,-2.24820162486594e-14,0.0949027984926844,0,0,0,0.0146554047289743,0.022214644997014
11.6,0.457424847038875,-0.914409716047829,0.457424847038875,0,0,0,1.00044007483445,0.0965084111954579,8.00748356510894e-15,0.0965084111954579,0,0,0,0.0150588133241284,0.0227521382573431
11.8,0.46373401623214,-0.927020752114603,0.46373401623214,0,0,0,1.00044738039445,0.0981105205025804,3.60267371490863e-14,0.0981105205025804,0,0,0,0.0154656445510967,0.0232884515564652
12,0.470003629245736,-0.939552693053489,0.470003629245736,0,0,0,1.00045466876851,0.0997088609335186,2.32314167902814e-14,0.0997088609335186,0,0,0,0.0158758702584297,0.0238233810141843
12.2,0.476234178996372,-0.952006525756592,0.476234178996372,0,0,0,1.00046193889708,0.101303200129282,8.04911692853238e-16,0.101303200129282,0,0,0,0.0162894636266093,0.0243567412029692
12.4,0.482426149244293,-0.964383218650019,0.482426149244293,0,0,0,1.00046918987372,0.102893339306429,1.28785870856518e-14,0.102893339306429,0,0,0,0.0167063990934549,0.0248883654086361
12.6,0.488580014818671,-0.976683722143999,0.488580014818671,0,0,0,1.00047642094577,0.104479113407285,2.78110867668602e-14,0.104479113407285,0,0,0,0.0171266522843347,0.0254181057347341
12.8,0.494696241836107,-0.988908969070545,0.494696241836107,0,0,0,1.0004836315137,0.10606039095363,6.18949336228525e-15,0.10606039095363,0,0,0,0.0175501999468339,0.0259458330534054
13,0.500775287912489,-1.00105987510915,0.500775287912489,0,0,0,1.00049082112912,0.107637073615107,2.63677968348475e-14,0.107637073615107,0,0,0,0.0179770198895573,0.0264714368078599
13.2,0.506817602368452,-1.01313733920092,0.506817602368452,0,0,0,1.0004979894916,0.109209095507285,3.21964677141295e-15,0.109209095507285,0,0,0,0.01840709092477,0.026994824673824
13.4,0.512823626428664,-1.02514224395147,0.512823626428664,0,0,0,1.00050513644432,0.110776422239478,8.88178419700125e-15,0.110776422239478,0,0,0,0.0188403928146022,0.0275159220893194
13.6,0.518793793415168,-1.03707545602302,0.518793793415168,0,0,0,1.00051226196869,0.112339049733411,-7.75768338456828e-15,0.112339049733411,0,0,0,0.0192769062205655,0.0280346716638706
13.8,0.524728528934982,-1.04893782651588,0.524728528934982,0,0,0,1.00051936617802,0.11389700283878,-5.70377078901174e-15,0.11389700283878,0,0,0,0.0197166126561489,0.028551032479667
14,0.53062825106217,-1.06073019133976,0.53062825106217,0,0,0,1.0005264493104,0.115450333771805,-1.77635683940025e-14,0.115450333771805,0,0,0,0.02015949444228,0.029064979298317
14.2,0.536493370514568,-1.07245337157496,0.536493370514568,0,0,0,1.00053351172096,0.116999120405792,-1.26149091173033e-14,0.116999120405792,0,0,0,0.0206055346654537,0.0295765016875874
14.4,0.542324290825362,-1.08410817382391,0.542324290825362,0,0,0,1.00054055387343,0.118543464442217,1.46271883494364e-14,0.118543464442217,0,0,0,0.0210547171383474,0.0300856030829424
14.6,0.548121408509688,-1.09569539055312,0.548121408509688,0,0,0,1.00054757633147,0.120083489491734,3.41671135828392e-14,0.120083489491734,0,0,0,0.0215070263627542,0.0305922997987716
14.8,0.553885113226438,-1.10721580042576,0.553885113226438,0,0,0,1.00055457974963,0.12161933909361,2.06917816214514e-14,0.12161933909361,0,0,0,0.0219624474946814,0.0310966200039683
15,0.559615787935423,-1.11867016862527,0.559615787935423,0,0,0,1.00056156486412,0.123151174700973,-3.71924713249427e-15,0.123151174700973,0,0,0,0.0224209663114686,0.0315986026759968
15.2,0.565313809050061,-1.13005924716987,0.565313809050061,0,0,0,1.00056853248362,0.124679173657629,-1.90125692967058e-14,0.124679173657629,0,0,0,0.0228825691807974,0.0320982965468238
15.4,0.570979546585738,-1.14138377521847,0.570979546585738,0,0,0,1.00057548348012,0.126203527190492,6.82787160144471e-15,0.126203527190492,0,0,0,0.0233472430314678,0.0325957590531154
15.6,0.576613364303994,-1.15264447936805,0.576613364303994,0,0,0,1.00058241877993,0.127724438438982,-1.55847557081756e-14,0.127724438438982,0,0,0,0.02381497532583,0.0330910553019681
15.8,0.582215619852664,-1.16384207394261,0.582215619852664,0,0,0,1.00058933935495,0.129242120541085,1.15740750317173e-14,0.129242120541085,0,0,0,0.0242857540337675,0.0335842570621889
16,0.587786664902119,-1.17497726127411,0.587786664902119,0,0,0,1.00059624621428,0.130756794791425,2.00117700188684e-14,0.130756794791425,0,0,0,0.0247595676081337,0.0340754417898192
16.2,0.593326845277734,-1.18605073197534,0.593326845277734,0,0,0,1.0006031403962,0.132268688886344,8.24340595784179e-15,0.132268688886344,0,0,0,0.0252364049615512,0.034564691695236
16.4,0.598836501088704,-1.19706316520515,0.598836501088704,0,0,0,1.00061002296063,0.133778035266262,1.59178226155632e-14,0.133778035266262,0,0,0,0.0257162554444931,0.0350520928578194
16.6,0.60431596685333,-1.2080152289261,0.60431596685333,0,0,0,1.00061689498205,0.135285069563963,-2.77416978278211e-14,0.135285069563963,0,0,0,0.0261991088245633,0.0355377343928578
16.8,0.609765571620894,-1.21890758015473,0.609765571620894,0,0,0,1.00062375754293,0.136790029165464,1.15046860926782e-14,0.136790029165464,0,0,0,0.0266849552669086,0.0360217076741152
17,0.615185639090233,-1.22974086520478,0.615185639090233,0,0,0,1.00063061172771,0.138293151886055,1.45439216225896e-14,0.138293151886055,0,0,0,0.0271737853156891,0.0365041056143248
17.2,0.62057648772511,-1.2405157199234,0.62057648772511,0,0,0,1.00063745861726,0.139794674764828,-2.78527201302836e-14,0.139794674764828,0,0,0,0.0276655898765484,0.0369850220048087
17.4,0.625938430866495,-1.25123276992068,0.625938430866495,0,0,0,1.00064429928398,0.141294832976459,-1.12826414877532e-14,0.141294832976459,0,0,0,0.02816036020002,0.0374645509144814
17.6,0.631271776841858,-1.26189263079268,0.631271776841858,0,0,0,1.00065113478732,0.142793858858624,6.41153796721028e-15,0.142793858858624,0,0,0,0.0286580878658169,0.0379427861476589
17.8,0.636576829071551,-1.27249590833807,0.636576829071551,0,0,0,1.00065796616987,0.144291981052754,-3.11695114163513e-14,0.144291981052754,0,0,0,0.0291587647679519,0.0384198207593934
18,0.641853886172395,-1.28304319876878,0.641853886172395,0,0,0,1.00066479445396,0.145789423753558,9.83935155574045e-15,0.145789423753558,0,0,0,0.0296623831006382,0.0388957466264536
18.2,0.647103242058539,-1.29353508891461,0.647103242058539,0,0,0,1.00067162063868,0.147286406061619,-3.46944695195361e-16,0.147286406061619,0,0,0,0.0301689353449269,0.0393706540716034
18.4,0.65232518603969,-1.30397215642224,0.65232518603969,0,0,0,1.00067844569738,0.148783141434899,2.90739654573713e-14,0.148783141434899,0,0,0,0.0306784142560365,0.039844631538449
18.6,0.657520002916794,-1.31435496994865,0.657520002916794,0,0,0,1.00068527057561,0.150279837231119,3.05311331771918e-16,0.150279837231119,0,0,0,0.0311908128513352,0.0403177653138597
18.8,0.662687973075237,-1.32468408934919,0.662687973075237,0,0,0,1.0006920961894,0.151776694336135,-6.56419363309624e-15,0.151776694336135,0,0,0,0.0317061243989378,0.0407901392947761
19,0.667829372575656,-1.3349600658606,0.667829372575656,0,0,0,1.00069892342394,0.153273906870202,2.12330153459561e-15,0.153273906870202,0,0,0,0.032224342406882,0.0412618347961125
19.2,0.672944473242426,-1.34518344227894,0.672944473242426,0,0,0,1.00070575313254,0.154771661966328,1.99840144432528e-15,0.154771661966328,0,0,0,0.0327454606128506,0.0417329303964209
19.4,0.678033542749897,-1.3553547531328,0.678033542749897,0,0,0,1.00071258613595,0.156270139613699,-1.26287869051112e-15,0.156270139613699,0,0,0,0.0332694729744081,0.0422035018179957
19.6,0.683096844706444,-1.36547452485184,0.683096844706444,0,0,0,1.00071942322189,0.157769512559583,-1.26842980563424e-14,0.157769512559583,0,0,0,0.0337963736597235,0.0426736218381669
19.8,0.688134638736401,-1.37554327593087,0.688134638736401,0,0,0,1.00072626514484,0.159269946263551,-4.4728110104586e-14,0.159269946263551,0,0,0,0.0343261570387499,0.0431433602286256
20,0.693147180559945,-1.38556151708961,0.693147180559945,0,0,0,1.00073311262607,0.160771598898101,2.19269047363468e-15,0.160771598898101,0,0,0,0.0348588176748374,0.0436127837197617
20.2,0.698134722070984,-1.39552975142828,0.698134722070984,0,0,0,1.00073996635381,0.16227462138944,1.59594559789866e-15,0.16227462138944,0,0,0,0.0353943503167529,0.0440819559871449
20.4,0.703097511413114,-1.40544847457917,0.703097511413114,0,0,0,1.00074682698356,0.163779157494309,1.35863542638504e-14,0.163779157494309,0,0,0,0.0359327498910853,0.0445509376574499
20.6,0.708035793053696,-1.41531817485429,0.708035793053696,0,0,0,1.00075369513865,0.165285343906479,-5.39845945723982e-15,0.165285343906479,0,0,0,0.0364740114950142,0.0450197863313091
20.8,0.712949807856125,-1.42513933338931,0.712949807856125,0,0,0,1.0007605714108,0.166793310389505,-3.9190872769268e-14,0.166793310389505,0,0,0,0.0370181303894227,0.0454885566207591
21,0.717839793150317,-1.43491242428384,0.717839793150317,0,0,0,1.00076745636083,0.168303179930983,8.93729534823251e-15,0.168303179930983,0,0,0,0.0375651019923348,0.0459573001991347
21.2,0.72270598280149,-1.44463791473822,0.72270598280149,0,0,0,1.00077435051945,0.169815068914307,-3.21964677141295e-15,0.169815068914307,0,0,0,0.0381149218726592,0.0464260658614504
21.4,0.727548607277278,-1.45431626518683,0.727548607277278,0,0,0,1.00078125438808,0.171329087305618,4.39925873507718e-15,0.171329087305618,0,0,0,0.038667585744225,0.046894899593486
21.6,0.732367893713227,-1.46394792942827,0.732367893713227,0,0,0,1.00078816843981,0.17284533885132,2.14273043752655e-14,0.17284533885132,0,0,0,0.039223089460091,0.0473638446479732
21.8,0.73716406597672,-1.47353335475222,0.73716406597672,0,0,0,1.00079509312031,0.174363921284528,-1.57374113740616e-14,0.174363921284528,0,0,0,0.0397814290071158,0.0478329416264358
22,0.741937344729377,-1.48307298206324,0.741937344729377,0,0,0,1.00080202884878,0.175884926537844,-1.19348975147204e-15,0.175884926537844,0,0,0,0.0403426005007746,0.0483022285654012
22.2,0.746687947487975,-1.49256724600171,0.746687947487975,0,0,0,1.00080897601897,0.177408440959585,3.92741394961149e-15,0.177408440959585,0,0,0,0.0409066001802087,0.048771741025843
22.4,0.751416088683921,-1.5020165750617,0.751416088683921,0,0,0,1.00081593500015,0.178934545532664,-3.33066907387547e-14,0.178934545532664,0,0,0,0.0414734244034972,0.049241512184849
22.6,0.756121979721334,-1.51142139170615,0.756121979721334,0,0,0,1.00082290613814,0.180463316093863,-2.7824964554668e-14,0.180463316093863,0,0,0,0.0420430696431379,0.0497115729286383
22.8,0.76080582903376,-1.52078211247934,0.76080582903376,0,0,0,1.00082988975628,0.181994823551898,7.97972798949331e-15,0.181994823551898,0,0,0,0.0426155324817273,0.0501819519461618
23,0.765467842139572,-1.53009914811668,0.765467842139572,0,0,0,1.00083688615642,0.183529134103647,1.37945210809676e-14,0.183529134103647,0,0,0,0.0431908096078299,0.0506526758226297
23.2,0.770108221696074,-1.53937290365194,0.770108221696074,0,0,0,1.00084389561991,0.185066309447292,-3.93018950717305e-14,0.185066309447292,0,0,0,0.0437688978120264,0.0511237691324
23.4,0.774727167552368,-1.54860377852203,0.774727167552368,0,0,0,1.00085091840853,0.186606406991581,4.45476988630844e-15,0.186606406991581,0,0,0,0.0443497939831328,0.0515952545307526
23.6,0.779324876800998,-1.55779216666938,0.779324876800998,0,0,0,1.00085795476543,0.188149480059805,5.71764857681956e-15,0.188149480059805,0,0,0,0.0449334951045803,0.0520671528441468
23.8,0.78390154382841,-1.56693845664192,0.78390154382841,0,0,0,1.00086500491605,0.18969557808947,-3.55826479392363e-14,0.18969557808947,0,0,0,0.04551999825095,0.0525394831586302
24,0.78845736036427,-1.57604303169087,0.78845736036427,0,0,0,1.00087206906897,0.191244746825899,3.88022947106492e-14,0.191244746825899,0,0,0,0.0461093005846537,0.0530122629061291
24.2,0.792992515529661,-1.58510626986624,0.792992515529661,0,0,0,1.00087914741682,0.192797028509251,-1.2267964422108e-14,0.192797028509251,0,0,0,0.0467013993527535,0.0534855079484035
24.4,0.797507195884188,-1.59412854411024,0.797507195884188,0,0,0,1.00088624013706,0.194352462056667,-5.91193760612896e-15,0.194352462056667,0,0,0,0.047296291883914,0.0539592326584965
24.6,0.802001585472028,-1.60311022234857,0.802001585472028,0,0,0,1.00089334739278,0.195911083236492,-7.57727214306669e-15,0.195911083236492,0,0,0,0.0478939755854806,0.0544334499995514
24.8,0.806475865866949,-1.61205166757969,0.806475865866949,0,0,0,1.0009004693335,0.197472924836943,-2.22599716437344e-14,0.197472924836943,0,0,0,0.0484944479406781,0.0549081716009065
25,0.810930216216329,-1.62095323796214,0.810930216216329,0,0,0,1.00090760609589,0.199038016827914,2.69784194983913e-14,0.199038016827914,0,0,0,0.0490977065059232,0.0553834078314053
25.2,0.815364813284195,-1.62981528689988,0.815364813284195,0,0,0,1.00091475780445,0.200606386515872,-1.27675647831893e-15,0.200606386515872,0,0,0,0.0497037489082463,0.0558591678698919
25.4,0.819779831493312,-1.63863816312582,0.819779831493312,0,0,0,1.00092192457224,0.20217805869298,-1.33781874467331e-14,0.20217805869298,0,0,0,0.0503125728428175,0.0563354597728808
25.6,0.824175442966349,-1.64742221078348,0.824175442966349,0,0,0,1.0009291065015,0.203753055778998,1.06303854607859e-14,0.203753055778998,0,0,0,0.0509241760705711,0.0568122905394114
25.8,0.828551817566148,-1.65616776950692,0.828551817566148,0,0,0,1.00093630368425,0.205331397957111,-2.22599716437344e-14,0.205331397957111,0,0,0,0.0515385564159255,0.0572896661731147
26,0.832909122935104,-1.6648751744989,0.832909122935104,0,0,0,1.00094351620294,0.206913103303923,1.99562588676372e-14,0.206913103303923,0,0,0,0.0521557117645928,0.0577675917415319
26.2,0.837247524533702,-1.67354475660742,0.837247524533702,0,0,0,1.00095074413093,0.208498187912558,1.11022302462516e-16,0.208498187912558,0,0,0,0.0527756400614745,0.0582460714327372
26.4,0.841567185678219,-1.68217684240053,0.841567185678219,0,0,0,1.00095798753311,0.210086666010874,2.79776202205539e-14,0.210086666010874,0,0,0,0.0533983393086401,0.0587251086093248
26.6,0.845868267577609,-1.69077175423967,0.845868267577609,0,0,0,1.00096524646636,0.211678550073008,7.57727214306669e-15,0.211678550073008,0,0,0,0.0540238075633839,0.0592047058598324
26.8,0.85015092936961,-1.69932981035131,0.85015092936961,0,0,0,1.00097252098006,0.213273850926215,1.59594559789866e-14,0.213273850926215,0,0,0,0.0546520429363572,0.0596848650476692
27,0.854415328156068,-1.70785132489721,0.854415328156068,0,0,0,1.00097981111651,0.214872577851712,1.31006316905768e-14,0.214872577851712,0,0,0,0.055283043589772,0.060165587357633
27.2,0.858661619037519,-1.71633660804311,0.858661619037519,0,0,0,1.00098711691145,0.216474738680861,2.07056594092592e-14,0.216474738680861,0,0,0,0.0559168077356736,0.0606468733400943
27.4,0.86288995514704,-1.72478596602601,0.86288995514704,0,0,0,1.00099443839437,0.218080339886095,-1.33781874467331e-14,0.218080339886095,0,0,0,0.056553333634279,0.0611287229529331
27.6,0.867100487683383,-1.73319970122007,0.867100487683383,0,0,0,1.001001775589,0.219689386667453,-1.75692793646931e-14,0.219689386667453,0,0,0,0.0571926195923783,0.0616111356013123
27.8,0.871293365943419,-1.74157811220112,0.871293365943419,0,0,0,1.00100912851361,0.221301883034182,1.4738210651899e-14,0.221301883034182,0,0,0,0.0578346639617955,0.0620941101753738
28,0.8754687373539,-1.74992149380982,0.8754687373539,0,0,0,1.00101649718141,0.222917831882144,-2.692290834716e-14,0.222917831882144,0,0,0,0.0584794651379079,0.0625776450859413
28.2,0.879626747502564,-1.75823013721352,0.879626747502564,0,0,0,1.00102388160085,0.224537235067495,4.49640324973188e-15,0.224537235067495,0,0,0,0.0591270215582201,0.0630617382983159
28.4,0.883767540168595,-1.76650432996693,0.883767540168595,0,0,0,1.00103128177599,0.226160093475544,2.10387263166467e-14,0.226160093475544,0,0,0,0.0597773317009906,0.0635463873642465
28.6,0.887891257352457,-1.77474435607139,0.887891257352457,0,0,0,1.00103869770673,0.227786407086625,5.77315972805081e-15,0.227786407086625,0,0,0,0.0604303940839097,0.0640315894521567
28.8,0.891998039305111,-1.78295049603311,0.891998039305111,0,0,0,1.00104612938914,0.229416175038088,2.11497486191092e-14,0.229416175038088,0,0,0,0.0610862072628253,0.0645173413757077
29,0.896088024556636,-1.7911230269201,0.896088024556636,0,0,0,1.0010535768157,0.231049395682634,2.22044604925031e-16,0.231049395682634,0,0,0,0.0617447698305156,0.0650036396207766
29.2,0.900161349944271,-1.79926222241802,0.900161349944271,0,0,0,1.00106103997558,0.232686066643857,-1.02695629777827e-14,0.232686066643857,0,0,0,0.0624060804155057,0.0654904803709234
29.4,0.904218150639886,-1.80736835288487,0.904218150639886,0,0,0,1.00106851885485,0.234326184868312,1.99562588676372e-14,0.234326184868312,0,0,0,0.063070137680928,0.0659778595314202
29.6,0.908258560176891,-1.81544168540457,0.908258560176891,0,0,0,1.00107601343673,0.23596974667469,2.15105711021124e-14,0.23596974667469,0,0,0,0.0637369403234227,0.0664657727519151
29.8,0.912282710476616,-1.82348248383958,0.912282710476616,0,0,0,1.00108352370178,0.237616747800438,-2.21489493412719e-14,0.237616747800438,0,0,0,0.0644064870720777,0.0669542154477952
30,0.916290731874155,-1.83149100888227,0.916290731874155,0,0,0,1.00109104962812,0.23926718344565,-5.52335954751015e-15,0.23926718344565,0,0,0,0.0650787766874071,0.0674431828203176
30.2,0.920282753143693,-1.83946751810551,0.920282753143693,0,0,0,1.00109859119158,0.240921048314072,-5.99520433297585e-15,0.240921048314072,0,0,0,0.0657538079603649,0.0679326698755693
30.4,0.924258901523332,-1.84741226601205,0.924258901523332,0,0,0,1.00110614836595,0.242578336652306,-4.8017145815038e-15,0.242578336652306,0,0,0,0.0664315797113938,0.0684226714423162
30.6,0.928219302739429,-1.85532550408308,0.928219302739429,0,0,0,1.00111372112306,0.244239042286388,9.46465128492946e-15,0.244239042286388,0,0,0,0.0671120907895078,0.0689131821887996
30.8,0.932164081030445,-1.86320748082576,0.932164081030445,0,0,0,1.001121309433,0.245903158656276,-1.13797860024079e-15,0.245903158656276,0,0,0,0.0677953400714067,0.0694041966385343
31,0.936093359170335,-1.87105844181983,0.936093359170335,0,0,0,1.00112891326424,0.247570678848513,1.33781874467331e-14,0.247570678848513,0,0,0,0.0684813264606209,0.0698957091851625
31.2,0.940007258491471,-1.87887862976336,0.940007258491471,0,0,0,1.0011365325838,0.249241595626647,1.22957199977236e-14,0.249241595626647,0,0,0,0.0691700488866866,0.0703877141064121
31.4,0.943905898907129,-1.88666828451755,0.943905898907129,0,0,0,1.00114416735732,0.250915901460178,1.77635683940025e-14,0.250915901460178,0,0,0,0.0698615063043489,0.070880205577207
31.6,0.947789398933526,-1.8944276431507,0.947789398933526,0,0,0,1.00115181754925,0.252593588551505,-2.09554595897998e-14,0.252593588551505,0,0,0,0.0705556976927926,0.0713731776819779
31.8,0.951657875711446,-1.90215693998135,0.951657875711446,0,0,0,1.00115948312294,0.254274648861618,4.91273688396632e-15,0.254274648861618,0,0,0,0.0712526220548993,0.0718666244262122
32,0.955511445027436,-1.90985640662055,0.955511445027436,0,0,0,1.00116716404074,0.255959074133658,-8.93729534823251e-15,0.255959074133658,0,0,0,0.0719522784165292,0.0723605397472898
32.2,0.959350221334602,-1.91752627201335,0.959350221334602,0,0,0,1.00117486026409,0.257646855915797,1.96787031114809e-14,0.257646855915797,0,0,0,0.0726546658258284,0.0728549175246382
32.4,0.963174317773006,-1.92516676247953,0.963174317773006,0,0,0,1.00118257175368,0.259337985581979,-1.86795023893183e-14,0.259337985581979,0,0,0,0.0733597833525581,0.0733497515892487
32.6,0.966983846189673,-1.93277810175347,0.966983846189673,0,0,0,1.00119029846946,0.261032454352189,2.61179966543068e-14,0.261032454352189,0,0,0,0.0740676300874479,0.0738450357325866
32.8,0.970778917158225,-1.94036051102337,0.970778917158225,0,0,0,1.00119804037077,0.262730253310509,1.00475183728577e-14,0.262730253310509,0,0,0,0.0747782051415696,0.0743407637149301
33,0.974559639998131,-1.94791420896968,0.974559639998131,0,0,0,1.00120579741643,0.264431373423042,-2.81163980986321e-14,0.264431373423042,0,0,0,0.0754915076457322,0.0748369292731681
33.2,0.978326122793608,-1.95543941180277,0.978326122793608,0,0,0,1.00121356956477,0.26613580555414,2.38697950294409e-15,0.26613580555414,0,0,0,0.0762075367498973,0.0753335261280886
33.4,0.982078472412158,-1.96293633330001,0.982078472412158,0,0,0,1.00122135677374,0.267843540481485,-1.18793863634892e-14,0.267843540481485,0,0,0,0.0769262916226137,0.0758305479911861
33.6,0.985816794522765,-1.97040518484205,0.985816794522765,0,0,0,1.00122915900096,0.26955456891084,3.88578058618805e-15,0.26955456891084,0,0,0,0.0776477714504698,0.0763279885710132
33.8,0.989541193613748,-1.97784617544846,0.989541193613748,0,0,0,1.00123697620378,0.271268881489168,-1.70419234279962e-14,0.271268881489168,0,0,0,0.0783719754375655,0.0768258415791046
34,0.993251773010283,-1.98525951181276,0.993251773010283,0,0,0,1.00124480833934,0.272986468817459,-3.42503803096861e-14,0.272986468817459,0,0,0,0.0790989028049999,0.0773241007354954
34.2,0.996948634891609,-1.99264539833674,0.996948634891609,0,0,0,1.00125265536463,0.274707321462411,1.45161660469739e-14,0.274707321462411,0,0,0,0.0798285527903767,0.0778227597738589
34.4,1.00063188030791,-2.00000403716417,1.00063188030791,0,0,0,1.00126051723651,0.276431429967205,-6.7168492989822e-15,0.276431429967205,0,0,0,0.0805609246473246,0.0783218124462829
34.6,1.00430160919687,-2.00733562821391,1.00430160919687,0,0,0,1.00126839391182,0.278158784862199,-5.21804821573824e-15,0.278158784862199,0,0,0,0.0812960176450345,0.0788212525277075
34.8,1.00795792039998,-2.01464036921243,1.00795792039998,0,0,0,1.00127628534735,0.27988937667419,2.3786528302594e-14,0.27988937667419,0,0,0,0.0820338310678102,0.079321073820042
35,1.01160091167848,-2.02191845572567,1.01160091167848,0,0,0,1.00128419149993,0.281623195935368,1.18516307878735e-14,0.281623195935368,0,0,0,0.0827743642146347,0.0798212701559811
35.2,1.01523067972906,-2.02917008119041,1.01523067972906,0,0,0,1.00129211232646,0.283360233191806,-1.75415237890775e-14,0.283360233191806,0,0,0,0.0835176163987491,0.0803218354025351
35.4,1.01884732019925,-2.03639543694501,1.01884732019925,0,0,0,1.00130004778391,0.285100479011168,1.38222766565832e-14,0.285100479011168,0,0,0,0.084263586947246,0.0808227634642932
35.6,1.02245092770255,-2.04359471225964,1.02245092770255,0,0,0,1.00130799782941,0.286843923989691,1.04916075827077e-14,0.286843923989691,0,0,0,0.0850122752006754,0.0813240482864343
35.8,1.02604159583327,-2.05076809436596,1.02604159583327,0,0,0,1.00131596242024,0.288590558759188,1.36002320516582e-14,0.288590558759188,0,0,0,0.0857636805126625,0.0818256838574991
36,1.02961941718116,-2.05791576848623,1.02961941718116,0,0,0,1.00132394151388,0.290340373993049,-1.40998324127395e-14,0.290340373993049,0,0,0,0.0865178022495384,0.0823276642119387
36.2,1.03318448334565,-2.06503791786197,1.03318448334565,0,0,0,1.001331935068,0.292093360412181,-4.44089209850063e-16,0.292093360412181,0,0,0,0.0872746397899814,0.0828299834324523
36.4,1.03673688495002,-2.07213472378205,1.03673688495002,0,0,0,1.00133994304054,0.293849508790102,-5.96744875736022e-15,0.293849508790102,0,0,0,0.0880341925246704,0.0833326356521255
36.6,1.04027671165515,-2.07920636561035,1.04027671165515,0,0,0,1.00134796538969,0.295608809958082,-1.69309011255336e-15,0.295608809958082,0,0,0,0.0887964598559484,0.0838356150563836
36.8,1.04380405217311,-2.08625302081286,1.04380405217311,0,0,0,1.00135600207391,0.297371254809554,-9.13158437754191e-15,0.297371254809554,0,0,0,0.0895614411974971,0.0843389158847665
37,1.04731899428056,-2.09327486498434,1.04731899428056,0,0,0,1.001364053052,0.29913683430439,-1.66533453693773e-15,0.29913683430439,0,0,0,0.0903291359740202,0.08484253243254
37.2,1.05082162483176,-2.10027207187455,1.05082162483176,0,0,0,1.00137211828305,0.300905539472661,-4.05231403988182e-15,0.300905539472661,0,0,0,0.0910995436209383,0.085346459052151
37.4,1.05431202977153,-2.10724481341396,1.05431202977153,0,0,0,1.00138019772649,0.302677361418241,-9.63118473862323e-15,0.302677361418241,0,0,0,0.0918726635840914,0.0858506901545361
37.6,1.05779029414785,-2.11419325973906,1.05779029414785,0,0,0,1.0013882913421,0.304452291322027,7.49400541621981e-15,0.304452291322027,0,0,0,0.0926484953194517,0.0863552202102926
37.8,1.06125650212434,-2.12111757921718,1.06125650212434,0,0,0,1.00139639909004,0.306230320444778,-2.29816166097407e-14,0.306230320444778,0,0,0,0.0934270382928445,0.0868600437507219
38,1.06471073699243,-2.12801793847097,1.06471073699243,0,0,0,1.00140452093083,0.30801144013008,2.31203944878189e-14,0.30801144013008,0,0,0,0.0942082919796774,0.0873651553687479
38.2,1.0681530811834,-2.13489450240237,1.0681530811834,0,0,0,1.00141265682538,0.309795641806297,-2.49245069028348e-14,0.309795641806297,0,0,0,0.0949922558646788,0.0878705497197268
38.4,1.07158361628019,-2.14174743421621,1.07158361628019,0,0,0,1.00142080673502,0.311582916989413,1.5182299861749e-14,0.311582916989413,0,0,0,0.0957789294416424,0.0883762215221445
38.6,1.07500242302898,-2.14857689544343,1.07500242302898,0,0,0,1.00142897062145,0.313373257284309,-2.4535928844216e-14,0.313373257284309,0,0,0,0.096568312213181,0.0888821655582173
38.8,1.07840958135059,-2.15538304596383,1.07840958135059,0,0,0,1.00143714844682,0.315166654387201,9.18709552877317e-15,0.315166654387201,0,0,0,0.0973604036904871,0.0893883766743966
39,1.08180517035173,-2.16216604402854,1.08180517035173,0,0,0,1.00144534017367,0.316963100086621,-4.32986979603811e-15,0.316963100086621,0,0,0,0.0981552033930999,0.0898948497817867
39.2,1.08518926833597,-2.16892604628201,1.08518926833597,0,0,0,1.001453545765,0.318762586265276,9.46465128492946e-15,0.318762586265276,0,0,0,0.0989527108486809,0.0904015798564786
39.4,1.08856195281461,-2.17566320778371,1.08856195281461,0,0,0,1.00146176518423,0.320565104900941,-5.02375918642883e-15,0.320565104900941,0,0,0,0.0997529255927942,0.0909085619398079
39.6,1.09192330051731,-2.18237768202939,1.09192330051731,0,0,0,1.0014699983952,0.32237064806775,5.07927033766009e-15,0.32237064806775,0,0,0,0.100555847168694,0.091415791138538
39.8,1.0952733874026,-2.18906962097207,1.0952733874026,0,0,0,1.00147824536223,0.32417920793689,-1.33504318711175e-14,0.32417920793689,0,0,0,0.10136147512712,0.0919232626249784
40,1.09861228866811,-2.19573917504259,1.09861228866811,0,0,0,1.00148650605006,0.325990776777602,2.10387263166467e-14,0.325990776777602,0,0,0,0.102169809026096,0.0924309716370369
40.2,1.0952733874026,-2.18908452303803,1.0952733874026,0,0,0,1.00146332137855,0.32090637831688,1.77635683940025e-14,0.32090637831688,0,0,0,0.101360979403688,0.090264349433
40.4,1.09192330051731,-2.18240684705954,1.09192330051731,0,0,0,1.00144079091843,0.315965448411699,-1.31283872661925e-14,0.315965448411699,0,0,0,0.100554903438722,0.0881700862674069
40.6,1.08856195281461,-2.17570603584807,1.08856195281461,0,0,0,1.00141887543374,0.311159382619006,4.9960036108132e-16,0.311159382619006,0,0,0,0.0997515768236022,0.0861437771898207
40.8,1.08518926833597,-2.16898197310357,1.08518926833597,0,0,0,1.0013975392174,0.306480350375261,1.88737914186277e-14,0.306480350375261,0,0,0,0.0989509958001844,0.0841814139835965
41,1.08180517035173,-2.16223453786977,1.08180517035173,0,0,0,1.00137674968458,0.301921205828542,2.22044604925031e-15,0.301921205828542,0,0,0,0.0981531570874257,0.0822793394521742
41.2,1.07840958135059,-2.15546360486243,1.07840958135059,0,0,0,1.00135647702257,0.297475411048745,-2.97539770599542e-14,0.297475411048745,0,0,0,0.097358057820268,0.0804342080526168
41.4,1.07500242302898,-2.14866904474999,1.07500242302898,0,0,0,1.00133669388792,0.293136969621347,-2.58126853225349e-15,0.293136969621347,0,0,0,0.0965656954977871,0.0786429518534924
41.6,1.07158361628019,-2.14185072439407,1.07158361628019,0,0,0,1.00131737514361,0.288900368993659,1.42663658664333e-14,0.288900368993659,0,0,0,0.0957760679390231,0.0769027509806626
41.8,1.0681530811834,-2.13500850705588,1.0681530811834,0,0,0,1.00129849762988,0.284760530233119,1.94289029309402e-15,0.284760530233119,0,0,0,0.0949891732452085,0.0752110078632702
42,1.06471073699243,-2.12814225257364,1.06471073699243,0,0,0,1.00128003996393,0.28071276408881,-1.47104550762833e-14,0.28071276408881,0,0,0,0.094205009767352,0.0735653247115781
42.2,1.06125650212434,-2.12125181751507,1.06125650212434,0,0,0,1.00126198236405,0.27675273243588,1.27398092075737e-14,0.27675273243588,0,0,0,0.093423576078323,0.0719634837546419
42.4,1.05779029414785,-2.11433705530853,1.05779029414785,0,0,0,1.00124430649491,0.272876414334767,1.97064586870965e-15,0.272876414334767,0,0,0,0.0926448709487363,0.0704034298439715
42.6,1.05431202977153,-2.10739781635576,1.05431202977153,0,0,0,1.00122699533088,0.269080076062058,-2.99760216648792e-15,0.269080076062058,0,0,0,0.0918688933260575,0.0688832550931119
42.8,1.05082162483176,-2.10043394812849,1.05082162483176,0,0,0,1.00121003303498,0.26536024457043,1.26565424807268e-14,0.26536024457043,0,0,0,0.0910956423164485,0.0674011852753381
43,1.04731899428056,-2.0934452952512,1.04731899428056,0,0,0,1.00119340485144,0.261713683920387,-1.74860126378462e-15,0.261713683920387,0,0,0,0.0903251171689525,0.0659555677447219
43.2,1.04380405217311,-2.08643169957174,1.04380405217311,0,0,0,1.00117709701001,0.258137374295541,-1.01862962509358e-14,0.258137374295541,0,0,0,0.0895573172616855,0.0645448606814382
43.4,1.04027671165515,-2.07939300022114,1.04027671165515,0,0,0,1.00116109664054,0.254628493270356,2.7450264283857e-14,0.254628493270356,0,0,0,0.0887922420897513,0.0631676234917768
43.6,1.03673688495002,-2.07232903366413,1.03673688495002,0,0,0,1.00114539169653,0.251184399048063,7.02216063075412e-15,0.251184399048063,0,0,0,0.0880298912546442,0.0618225082180092
43.8,1.03318448334565,-2.06523963374131,1.03318448334565,0,0,0,1.00112997088658,0.247802615427117,2.70339306496226e-14,0.247802615427117,0,0,0,0.0872702644549401,0.0605082518339387
44,1.02961941718116,-2.0581246317039,1.02961941718116,0,0,0,1.0011148236128,0.244480818286707,-6.93889390390723e-15,0.244480818286707,0,0,0,0.086513361478105,0.059223669319342
44.2,1.02604159583327,-2.05098385624198,1.02604159583327,0,0,0,1.00109993991524,0.241216823413164,-8.32667268468867e-17,0.241216823413164,0,0,0,0.0857591821932765,0.0579676474211741
44.4,1.02245092770255,-2.04381713350682,1.02245092770255,0,0,0,1.00108531042184,0.238008575510339,8.24340595784179e-15,0.238008575510339,0,0,0,0.0850077265448964,0.056739139021826
44.6,1.01884732019925,-2.03662428712793,1.01884732019925,0,0,0,1.00107092630306,0.234854138260255,1.97897254139434e-14,0.234854138260255,0,0,0,0.0842589945470871,0.0555371580452646
44.8,1.01523067972906,-2.0294051382254,1.01523067972906,0,0,0,1.00105677923081,0.231751685315958,7.21644966006352e-15,0.231751685315958,0,0,0,0.0835129862786823,0.0543607748408742
45,1.01160091167848,-2.02215950541789,1.01160091167848,0,0,0,1.0010428613412,0.228699492124554,3.49720252756924e-15,0.228699492124554,0,0,0,0.0827697018788335,0.0532091119924953
45.2,1.00795792039998,-2.01488720482679,1.00795792039998,0,0,0,1.0010291652006,0.225695928490606,1.65978342181461e-14,0.225695928490606,0,0,0,0.0820291415431252,0.0520813405067416
45.4,1.00430160919687,-2.00758805007676,1.00430160919687,0,0,0,1.00101568377475,0.222739451801587,-2.38697950294409e-15,0.222739451801587,0,0,0,0.0812913055201408,0.0509766763403332
45.6,1.00063188030791,-2.00026185229304,1.00063188030791,0,0,0,1.00100241040058,0.219828600846554,-2.47302178735254e-14,0.219828600846554,0,0,0,0.0805561941084283,0.0498943772310655
45.8,0.996948634891609,-1.99290842009581,0.996948634891609,0,0,0,1.00098933876045,0.216961990166895,-1.21014309684142e-14,0.216961990166895,0,0,0,0.0798238076538223,0.0488337398012462
46,0.993251773010283,-1.98552755959173,0.993251773010283,0,0,0,1.00097646285858,0.214138304885726,-1.92346139016308e-14,0.214138304885726,0,0,0,0.0790941465470843,0.0477940969060879
46.2,0.989541193613748,-1.97811907436296,0.989541193613748,0,0,0,1.0009637769994,0.211356295968808,-5.77315972805081e-15,0.211356295968808,0,0,0,0.0783672112218273,0.0467748152027173
46.4,0.985816794522765,-1.9706827654538,0.985816794522765,0,0,0,1.00095127576778,0.208614775874318,3.02535774210355e-15,0.208614775874318,0,0,0,0.0776430021526973,0.0457752929182235
46.6,0.982078472412158,-1.96321843135515,0.982078472412158,0,0,0,1.00093895401074,0.205912614554755,1.2267964422108e-14,0.205912614554755,0,0,0,0.0769215198537838,0.0447949577975803
46.8,0.978326122793608,-1.95572586798678,0.978326122793608,0,0,0,1.00092680682069,0.203248735777357,2.56183962932255e-14,0.203248735777357,0,0,0,0.0762027648772396,0.043833265214385
47,0.974559639998131,-1.94820486867776,0.974559639998131,0,0,0,1.00091482951999,0.200622113733548,-1.64313007644523e-14,0.200622113733548,0,0,0,0.0754867378120885,0.042889696429205
47.2,0.970778917158225,-1.94065522414494,0.970778917158225,0,0,0,1.00090301764665,0.198031769911276,-4.24660306919122e-15,0.198031769911276,0,0,0,0.0747734392832051,0.0419637569819478
47.4,0.966983846189673,-1.93307672246974,0.966983846189673,0,0,0,1.0008913669412,0.195476770205719,-1.83186799063151e-14,0.195476770205719,0,0,0,0.0740628699504502,0.0410549752060961
47.6,0.963174317773006,-1.92546914907318,0.963174317773006,0,0,0,1.00087987333447,0.192956222248431,-8.1601392309949e-15,0.192956222248431,0,0,0,0.0733550305079505,0.0401629008539127
47.8,0.959350221334602,-1.91783228668937,0.959350221334602,0,0,0,1.00086853293632,0.190469272934697,-2.96984659087229e-15,0.190469272934697,0,0,0,0.072649921683509,0.0392871038228291
48,0.955511445027436,-1.91016591533739,0.955511445027436,0,0,0,1.00085734202523,0.188015106132851,-7.71605002114484e-15,0.188015106132851,0,0,0,0.0719475442381364,0.0384271729742207
48.2,0.951657875711446,-1.90246981229174,0.951657875711446,0,0,0,1.00084629703858,0.185592940559734,8.74300631892311e-16,0.185592940559734,0,0,0,0.0712478989656964,0.0375827150366421
48.4,0.947789398933526,-1.89474375205123,0.947789398933526,0,0,0,1.00083539456365,0.183202027808432,-1.96093141724418e-14,0.183202027808432,0,0,0,0.0705509866926532,0.0367533535863724
48.6,0.943905898907129,-1.88698750630656,0.943905898907129,0,0,0,1.0008246313293,0.180841650516094,6.96664947952286e-15,0.180841650516094,0,0,0,0.0698568082779182,0.0359387280988116
48.8,0.940007258491471,-1.87920084390651,0.940007258491471,0,0,0,1.00081400419818,0.178511120659819,1.98036032017512e-14,0.178511120659819,0,0,0,0.0691653646127871,0.0351384930648827
49,0.936093359170335,-1.87138353082267,0.936093359170335,0,0,0,1.00080351015947,0.176209777971159,6.85562717706034e-15,0.176209777971159,0,0,0,0.0684766566209634,0.0343523171671448
49.2,0.932164081030445,-1.86353533011301,0.932164081030445,0,0,0,1.0007931463222,0.173936988459294,-3.24323901068624e-14,0.173936988459294,0,0,0,0.0677906852586629,0.0335798825108115
49.4,0.928219302739429,-1.85565600188399,0.928219302739429,0,0,0,1.00078290990896,0.17169214303473,1.4585554986013e-14,0.17169214303473,0,0,0,0.0671074515147962,0.03282088390531
49.6,0.924258901523332,-1.84774530325148,0.924258901523332,0,0,0,1.00077279825,0.169474656225175,-1.63619118254132e-14,0.169474656225175,0,0,0,0.0664269564112244,0.0320750281924101
49.8,0.920282753143693,-1.8398029883003,0.920282753143693,0,0,0,1.00076280877783,0.167283964978013,5.28743715477731e-15,0.167283964978013,0,0,0,0.0657492010030863,0.0313420336173055
50,0.916290731874155,-1.83182880804262,0.916290731874155,0,0,0,1.00075293902207,0.165119527540868,6.93889390390723e-16,0.165119527540868,0,0,0,0.0650741863791938,0.0306216292393486
50.2,0.912282710476616,-1.82382251037492,0.912282710476616,0,0,0,1.00074318660473,0.16298082241628,-4.44089209850063e-15,0.16298082241628,0,0,0,0.0644019136624932,0.029913554379428
50.4,0.908258560176891,-1.81578384003385,0.908258560176891,0,0,0,1.00073354923568,0.16086734738378,-2.17881268582687e-15,0.16086734738378,0,0,0,0.0637323840105922,0.029217558101235
50.6,0.904218150639886,-1.80771253855067,0.904218150639886,0,0,0,1.00072402470855,0.158778618584936,-1.94705362943637e-14,0.158778618584936,0,0,0,0.0630655986163491,0.0285333987239006
50.8,0.900161349944271,-1.79960834420454,0.900161349944271,0,0,0,1.00071461089679,0.156714169666729,-3.34454686168328e-14,0.156714169666729,0,0,0,0.0624015587085244,0.0278608433636959
51,0.896088024556636,-1.79147099197446,0.896088024556636,0,0,0,1.00070530575002,0.154673550978741,-9.85322934354826e-15,0.154673550978741,0,0,0,0.0617402655524944,0.027199667502681
51.2,0.89199803930511,-1.78330021348996,0.89199803930511,0,0,0,1.00069610729056,0.152656328820218,-3.10584891138888e-14,0.152656328820218,0,0,0,0.0610817204510251,0.026549654582362
51.4,0.887891257352457,-1.77509573698046,0.887891257352457,0,0,0,1.00068701361028,0.150662084733748,1.22124532708767e-15,0.150662084733748,0,0,0,0.0604259247451071,0.0259105956205749
51.6,0.883767540168595,-1.76685728722336,0.883767540168595,0,0,0,1.00067802286749,0.148690414840967,-5.12090370108353e-15,0.148690414840967,0,0,0,0.0597728798148512,0.0252822888499594
51.8,0.879626747502564,-1.75858458549082,0.879626747502564,0,0,0,1.00066913328417,0.14674092921832,1.00336405850499e-14,0.14674092921832,0,0,0,0.0591225870804453,0.0246645393765203
52,0.8754687373539,-1.75027734949518,0.8754687373539,0,0,0,1.00066034314322,0.144813251308379,-4.74620343027254e-15,0.144813251308379,0,0,0,0.0584750480031727,0.0240571588568931
52.2,0.871293365943419,-1.74193529333304,0.871293365943419,0,0,0,1.00065165078598,0.142907017364729,-1.39332989590457e-14,0.142907017364729,0,0,0,0.0578302640864924,0.0234599651930457
52.4,0.867100487683383,-1.733558127428,0.867100487683383,0,0,0,1.00064305460979,0.14102187592669,1.5182299861749e-14,0.14102187592669,0,0,0,0.057188236877183,0.0228727822432491
52.6,0.86288995514704,-1.72514555847199,0.86288995514704,0,0,0,1.00063455306576,0.139157487321281,1.41692213517786e-14,0.139157487321281,0,0,0,0.0565489679665506,0.0222954395482473
52.8,0.858661619037519,-1.71669728936523,0.858661619037519,0,0,0,1.00062614465659,0.137313523189813,-6.42541575501809e-15,0.137313523189813,0,0,0,0.0559124589917029,0.0217277720716466
53,0.854415328156068,-1.70821301915474,0.854415328156068,0,0,0,1.0006178279345,0.135489666035786,2.05391259555654e-15,0.135489666035786,0,0,0,0.0552787116368898,0.0211696199536279
53.2,0.85015092936961,-1.69969244297146,0.85015092936961,0,0,0,1.00060960149928,0.1336856087913,-3.79696274421804e-14,0.1336856087913,0,0,0,0.0546477276349133,0.0206208282771637
53.4,0.845868267577609,-1.69113525196584,0.845868267577609,0,0,0,1.00060146399635,0.131901054399705,2.86715096109447e-14,0.131901054399705,0,0,0,0.0540195087686087,0.0200812468459995
53.6,0.841567185678219,-1.68254113324201,0.841567185678219,0,0,0,1.00059341411496,0.130135715410039,-8.81239525796218e-15,0.130135715410039,0,0,0,0.0533940568723981,0.0195507299737291
53.8,0.837247524533702,-1.67390976979041,0.837247524533702,0,0,0,1.00058545058633,0.128389313582429,4.09394740330526e-15,0.128389313582429,0,0,0,0.0527713738339201,0.0190291362833618
54,0.832909122935104,-1.66524084041889,0.832909122935104,0,0,0,1.00057757218194,0.126661579498627,1.75554015768853e-14,0.126661579498627,0,0,0,0.0521514615957367,0.0185163285168504
54.2,0.828551817566148,-1.65653401968228,0.828551817566148,0,0,0,1.0005697777117,0.124952252176391,-7.23032744787133e-15,0.124952252176391,0,0,0,0.0515343221571219,0.018012173354111
54.4,0.824175442966349,-1.64778897781037,0.824175442966349,0,0,0,1.00056206602227,0.123261078683276,1.94705362943637e-14,0.123261078683276,0,0,0,0.0509199575759332,0.0175165412411339
54.6,0.819779831493312,-1.63900538063428,0.819779831493312,0,0,0,1.00055443599519,0.12158781374577,1.45022882591661e-14,0.12158781374577,0,0,0,0.050308369970571,0.0170293062268499
54.8,0.815364813284195,-1.63018288951119,0.815364813284195,0,0,0,1.00054688654515,0.119932219350753,-2.79637424327461e-14,0.119932219350753,0,0,0,0.0496995615220277,0.0165503458084793
55,0.810930216216329,-1.62132116124747,0.810930216216329,0,0,0,1.00053941661803,0.118294064334259,-1.12826414877532e-14,0.118294064334259,0,0,0,0.0490935344760315,0.0160795407851638
55.2,0.806475865866948,-1.6124198480201,0.806475865866948,0,0,0,1.00053202518902,0.116673123952956,-5.6621374255883e-15,0.116673123952956,0,0,0,0.0484902911452886,0.0156167751197435
55.4,0.802001585472027,-1.60347859729634,0.802001585472027,0,0,0,1.00052471126053,0.115069179434326,1.2490009027033e-16,0.115069179434326,0,0,0,0.0478898339118271,0.0151619358086172
55.6,0.797507195884188,-1.5944970517518,0.797507195884188,0,0,0,1.00051747386001,0.113482017499558,3.77475828372553e-15,0.113482017499558,0,0,0,0.0472921652294482,0.0147149127596937
55.8,0.792992515529661,-1.58547484918659,0.792992515529661,0,0,0,1.00051031203764,0.111911429854111,-1.7874590696465e-14,0.111911429854111,0,0,0,0.0466972876262896,0.0142755986785219
56,0.78845736036427,-1.57641162243987,0.78845736036427,0,0,0,1.00050322486384,0.110357212640151,-1.90125692967058e-14,0.110357212640151,0,0,0,0.0461052037075047,0.0138438889627633
56.2,0.783901543828409,-1.56730699930244,0.783901543828409,0,0,0,1.00049621142656,0.108819165844424,1.76664238793478e-14,0.108819165844424,0,0,0,0.0455159161580644,0.0134196816052588
56.4,0.779324876800998,-1.5581606024276,0.779324876800998,0,0,0,1.00048927082834,0.107297092655324,2.81441536742477e-14,0.107297092655324,0,0,0,0.0449294277456872,0.0130028771060254
56.6,0.774727167552368,-1.54897204924012,0.774727167552368,0,0,0,1.00048240218314,0.105790798762496,1.55431223447522e-14,0.105790798762496,0,0,0,0.0443457413239019,0.0125933783936143
56.8,0.770108221696074,-1.53974095184335,0.770108221696074,0,0,0,1.00047560461282,0.104300091591481,2.92821322744885e-15,0.104300091591481,0,0,0,0.0437648598352517,0.0121910907563561
57,0.765467842139571,-1.53046691692438,0.765467842139571,0,0,0,1.00046887724335,0.102824779466276,2.14134265874577e-14,0.102824779466276,0,0,0,0.0431867863146446,0.0117959217841226
57.2,0.76080582903376,-1.52114954565731,0.76080582903376,0,0,0,1.0004622192006,0.101364670692127,1.10328413072125e-14,0.101364670692127,0,0,0,0.0426115238928581,0.0114077813213377
57.4,0.756121979721334,-1.51178843360452,0.756121979721334,0,0,0,1.0004556296058,0.0999195725512239,-1.36418654150816e-14,0.0999195725512239,0,0,0,0.042039075800205,0.0110265814320829
57.6,0.751416088683921,-1.502383170616,0.751416088683921,0,0,0,1.00044910757047,0.0984892902031009,-3.87190279838023e-15,0.0984892902031009,0,0,0,0.0414694453703686,0.010652236378253
57.8,0.746687947487975,-1.49293334072655,0.746687947487975,0,0,0,1.00044265219098,0.0970736254822424,-5.82867087928207e-16,0.0970736254822424,0,0,0,0.0409026360444162,0.0102846626118371
58,0.741937344729377,-1.48343852205102,0.741937344729377,0,0,0,1.00043626254257,0.0956723755858386,1.58206781009085e-14,0.0956723755858386,0,0,0,0.0403386513749977,0.00992377878251388
58.2,0.73716406597672,-1.47389828667736,0.73716406597672,0,0,0,1.0004299376728,0.0942853316441406,-1.44467771079348e-14,0.0942853316441406,0,0,0,0.0397774950307415,0.00956950576187245
58.4,0.732367893713227,-1.46431220055757,0.732367893713227,0,0,0,1.00042367659447,0.0929122771676815,-1.19487753025282e-14,0.0929122771676815,0,0,0,0.0392191708008535,0.00922176668568237
58.6,0.727548607277278,-1.45467982339637,0.727548607277278,0,0,0,1.000417478278,0.0915529863650165,-1.94566585065559e-14,0.0915529863650165,0,0,0,0.0386636825999337,0.00888048701575271
58.8,0.72270598280149,-1.44500070853768,0.72270598280149,0,0,0,1.00041134164308,0.0902072223275786,1.75900960464048e-14,0.0902072223275786,0,0,0,0.038111034473017,0.00854559462302413
59,0.717839793150317,-1.43527440284871,0.717839793150317,0,0,0,1.00040526554983,0.0888747350778329,1.69378400194375e-14,0.0888747350778329,0,0,0,0.0375612306008532,0.00821701989363605
59.2,0.712949807856125,-1.4255004466016,0.712949807856125,0,0,0,1.00039924878924,0.0875552594806111,-1.15255027743899e-14,0.0875552594806111,0,0,0,0.0370142753054343,0.00789469585979331
59.4,0.708035793053696,-1.41567837335262,0.708035793053696,0,0,0,1.00039329007304,0.0862485130181358,1.48492329543615e-15,0.0862485130181358,0,0,0,0.0364701730557852,0.00757855835732292
59.6,0.703097511413114,-1.40580770981865,0.703097511413114,0,0,0,1.00038738802295,0.0849541934327801,-2.25514051876985e-14,0.0849541934327801,0,0,0,0.0359289284740285,0.00726854621185379
59.8,0.698134722070984,-1.39588797575094,0.698134722070984,0,0,0,1.00038154115935,0.0836719762454447,4.26741975090295e-15,0.0836719762454447,0,0,0,0.0353905463417382,0.00696460145556587
60,0.693147180559945,-1.38591868380599,0.693147180559945,0,0,0,1.00037574788946,0.0824015121593412,1.9220736113823e-15,0.0824015121593412,0,0,0,0.034855031606597,0.00666666957643426
60.2,0.688134638736401,-1.37589933941327,0.688134638736401,0,0,0,1.00037000649506,0.0811424243657372,2.93515212135276e-15,0.0811424243657372,0,0,0,0.034322389389373,0.00637469980183001
60.4,0.683096844706444,-1.36582944063973,0.683096844706444,0,0,0,1.00036431511979,0.079894305770875,2.53824739004926e-14,0.079894305770875,0,0,0,0.0337926249912315,0.00608864541822612
60.6,0.678033542749897,-1.35570847805077,0.678033542749897,0,0,0,1.00035867175636,0.0786567161703117,2.01436090030427e-14,0.0786567161703117,0,0,0,0.0332657439014008,0.00580846412858516
60.8,0.672944473242426,-1.34553593456741,0.672944473242426,0,0,0,1.00035307423348,0.0774291794026754,-1.50920942409982e-14,0.0774291794026754,0,0,0,0.0327417518052089,0.00553411844876751
61,0.667829372575655,-1.33531128531946,0.667829372575655,0,0,0,1.00034752020301,0.0762111805211892,-6.53643805748061e-15,0.0762111805211892,0,0,0,0.0322206545925133,0.00526557614398376
61.2,0.662687973075237,-1.32503399749423,0.662687973075237,0,0,0,1.00034200712735,0.0750021630286507,1.41900380334903e-14,0.0750021630286507,0,0,0,0.0317024583665437,0.00500281070591725
61.4,0.657520002916794,-1.31470353018052,0.657520002916794,0,0,0,1.00033653226735,0.0738015262297868,-2.02476924116013e-14,0.0738015262297868,0,0,0,0.0311871694531813,0.00474580187065062
61.6,0.65232518603969,-1.30431933420741,0.65232518603969,0,0,0,1.00033109267105,0.0726086227622855,1.55500612386561e-14,0.0726086227622855,0,0,0,0.0306747944106986,0.00449453617693782
61.8,0.647103242058539,-1.29388085197739,0.647103242058539,0,0,0,1.00032568516359,0.0714227563751773,2.24681384608516e-14,0.0714227563751773,0,0,0,0.0301653400399885,0.00424900756366341
62,0.641853886172395,-1.28338751729341,0.641853886172395,0,0,0,1.0003203063385,0.0702431800334338,1.07344688693445e-14,0.0702431800334338,0,0,0,0.0296588133953084,0.0040092180045187
62.2,0.636576829071551,-1.27283875517925,0.636576829071551,0,0,0,1.00031495255099,0.0690690944327051,-2.28428387316626e-14,0.0690690944327051,0,0,0,0.0291552217955736,0.0037751781769976
62.4,0.631271776841858,-1.26223398169263,0.631271776841858,0,0,0,1.00030961991344,0.0678996470169652,-1.01862962509358e-14,0.0678996470169652,0,0,0,0.0286545728362304,0.00354690816177463
62.6,0.625938430866495,-1.25157260373051,0.625938430866495,0,0,0,1.00030430429365,0.0667339315966066,-1.6077417175353e-14,0.0667339315966066,0,0,0,0.0281568744017485,0.00332443816737765
62.8,0.62057648772511,-1.24085401882588,0.62057648772511,0,0,0,1.00029900131633,0.0655709886701543,-2.31065167000111e-14,0.0655709886701543,0,0,0,0.0276621346787692,0.00310780927381828
63,0.615185639090233,-1.2300776149355,0.615185639090233,0,0,0,1.00029370636823,0.0644098065538061,1.65770175364344e-14,0.0644098065538061,0,0,0,0.0271703621699537,0.00289707418750879
63.2,0.609765571620894,-1.21924277021779,0.609765571620894,0,0,0,1.0002884146075,0.0632493234237144,5.72458747072346e-15,0.0632493234237144,0,0,0,0.0266815657085764,0.00269229799839792
63.4,0.60431596685333,-1.20834885280031,0.60431596685333,0,0,0,1.00028312097753,0.0620884303731136,9.22872889219661e-16,0.0620884303731136,0,0,0,0.0261957544739123,0.00249355892882762
63.6,0.598836501088704,-1.19739522053623,0.598836501088704,0,0,0,1.00027782022607,0.060925975577791,1.68615121864946e-15,0.060925975577791,0,0,0,0.0257129380074723,0.00230094906218695
63.8,0.593326845277734,-1.18638122074917,0.593326845277734,0,0,0,1.00027250692957,0.0597607696537555,8.37524494201602e-15,0.0597607696537555,0,0,0,0.0252331262301424,0.00211457503806428
64,0.587786664902119,-1.1753061899659,0.587786664902119,0,0,0,1.00026717552336,0.0585915922734137,-2.2364055052293e-14,0.0585915922734137,0,0,0,0.0247563294602877,0.00193455869932906
64.2,0.582215619852664,-1.16416945363646,0.582215619852664,0,0,0,1.00026182033783,0.0574172000853351,-1.04846686888038e-14,0.0574172000853351,0,0,0,0.0242825584328863,0.00176103767547598
64.4,0.576613364303994,-1.15297032584152,0.576613364303994,0,0,0,1.00025643564046,0.0562363359538477,-8.33361157859258e-15,0.0562363359538477,0,0,0,0.0238118243197621,0.00159416588570828
64.6,0.570979546585738,-1.14170810898664,0.570979546585738,0,0,0,1.000251015684,0.0550477395020458,7.74380559676047e-15,0.0550477395020458,0,0,0,0.0233441387509909,0.00143411394470707
64.8,0.56531380905006,-1.13038209348361,0.56531380905006,0,0,0,1.00024555476014,0.0538501588995084,-1.12826414877532e-14,0.0538501588995084,0,0,0,0.0228795138375568,0.00128106945391264
65,0.559615787935423,-1.11899155741907,0.559615787935423,0,0,0,1.00024004725851,0.0526423637906983,2.35436670159572e-14,0.0526423637906983,0,0,0,0.0224179621953464,0.00113523716152807
65.2,0.553885113226438,-1.10753576621075,0.553885113226438,0,0,0,1.00023448773008,0.0514231592056535,4.44783099240453e-15,0.0514231592056535,0,0,0,0.0219594969705675,0.000996838975432041
65.4,0.548121408509687,-1.09601397225221,0.548121408509687,0,0,0,1.00022887095412,0.0501914002389047,2.48134846003722e-14,0.0501914002389047,0,0,0,0.0215041318666914,0.000866113814850355
65.6,0.542324290825362,-1.08442541454698,0.542324290825362,0,0,0,1.00022319200738,0.0489460072178772,-2.00950367457153e-14,0.0489460072178772,0,0,0,0.0210518811730246,0.000743317289067179
65.8,0.536493370514568,-1.07276931833328,0.536493370514568,0,0,0,1.00021744633388,0.0476859810208153,-1.68545732925907e-14,0.0476859810208153,0,0,0,0.0206027597950227,0.000628721194730732
66,0.53062825106217,-1.06104489470111,0.53062825106217,0,0,0,1.00021162981366,0.0464104181360947,-4.13211131977675e-15,0.0464104181360947,0,0,0,0.0201567832864745,0.00052261282748606
66.2,0.524728528934982,-1.04925134020323,0.524728528934982,0,0,0,1.00020573882806,0.0451185249943611,-1.47451495458029e-14,0.0451185249943611,0,0,0,0.0197139678836944,0.000425294108792994
66.4,0.518793793415167,-1.03738783646237,0.518793793415167,0,0,0,1.0001997703194,0.0438096310437204,-1.53384249745869e-14,0.0438096310437204,0,0,0,0.0192743305418786,0.000337080534889755
66.6,0.512823626428664,-1.02545354977682,0.512823626428664,0,0,0,1.00019372184216,0.0424831999859502,3.05415415180477e-14,0.0424831999859502,0,0,0,0.0188378889737981,0.000258299961961583
66.8,0.506817602368452,-1.01344763072697,0.506817602368452,0,0,0,1.00018759160304,0.0411388385471057,3.07046055247895e-14,0.0411388385471057,0,0,0,0.018404661691024,0.000189291249700878
67,0.500775287912489,-1.00136921378543,0.500775287912489,0,0,0,1.00018137848664,0.0397763021195236,-2.23432383705813e-15,0.0397763021195236,0,0,0,0.0179746680479027,0.000130402794700059
67.2,0.494696241836107,-0.989217416933558,0.494696241836107,0,0,0,1.00017508206373,0.0383954965763965,-5.2804982608734e-15,0.0383954965763965,0,0,0,0.0175479282885292,8.19909958112061e-05
67.4,0.488580014818671,-0.976991341287342,0.488580014818671,0,0,0,1.00016870257868,0.0369964755042934,4.3680337125096e-15,0.0369964755042934,0,0,0,0.0171244635969984,4.44187066905117e-05
67.6,0.482426149244293,-0.964690070736564,0.482426149244293,0,0,0,1.00016224091165,0.0355794319258159,-1.25732757538799e-14,0.0355794319258159,0,0,0,0.0167042961512609,1.80537493286326e-05
67.8,0.476234178996372,-0.952312671604591,0.476234178996372,0,0,0,1.00015569850791,0.0341446827840971,2.77555756156289e-16,0.0341446827840971,0,0,0,0.0162874491810063,3.26759904433746e-06
68,0.470003629245735,-0.939858192353528,0.470003629245735,0,0,0,1.00014907724885,0.0326926406731477,-3.08433834028676e-14,0.0326926406731477,0,0,0,0.0158739470303203,4.34494886185917e-07
68.2,0.46373401623214,-0.927325662910075,0.46373401623214,0,0,0,1.00014237968923,0.0312238658483661,-1.84921522539128e-15,0.0312238658483661,0,0,0,0.0154638152186298,9.9301940006867e-06
68.4,0.457424847038875,-0.914714094338055,0.457424847038875,0,0,0,1.00013560893376,0.0297390391726003,2.19858853345301e-14,0.0297390391726003,0,0,0,0.0150570805116524,3.21274512500436e-05
68.6,0.451075619360217,-0.902022478862852,0.451075619360217,0,0,0,1.00012876814749,0.0282388547440182,-8.64933125122036e-15,0.0282388547440182,0,0,0,0.0146537710034371,6.73947219944097e-05
68.8,0.444685821261446,-0.889249789542142,0.444685821261446,0,0,0,1.00012186040513,0.0267239868441021,-5.87030424270552e-15,0.0267239868441021,0,0,0,0.0142539161985863,0.000116096394526697
69,0.438254930931155,-0.87639497997437,0.438254930931155,0,0,0,1.00011488848712,0.0251950452247532,-1.76421377506841e-14,0.0251950452247532,0,0,0,0.0138575471013185,0.000178593330341059
69.2,0.431782416425538,-0.863456984018339,0.431782416425538,0,0,0,1.00010785464863,0.0236525244447972,-1.32428790156069e-14,0.0236525244447972,0,0,0,0.013464696311506,0.000255243975773581
69.4,0.425267735404344,-0.850434715513974,0.425267735404344,0,0,0,1.0001007603707,0.0220967492941605,-5.48519563103866e-15,0.0220967492941605,0,0,0,0.0130753981281053,0.000346406159999126
69.6,0.418710334858185,-0.837327067996763,0.418710334858185,0,0,0,1.00009360610039,0.0205278178145112,-1.45040229826421e-14,0.0205278178145112,0,0,0,0.0126896886604621,0.00045243965490756
69.8,0.412109650826833,-0.824132914398329,0.412109650826833,0,0,0,1.00008639098682,0.0189455434104105,1.62422159055708e-14,0.0189455434104105,0,0,0,0.0123076059479965,0.000573709548445751
70,0.405465108108164,-0.81085110672541,0.405465108108164,0,0,0,1.00007911262016,0.0173493976005405,3.55236673410531e-14,0.0173493976005405,0,0,0,0.0119291900888006,0.000710590461630033
70.2,0.398776119957368,-0.797480475709216,0.398776119957368,0,0,0,1.00007176678063,0.0157384549926022,4.8988590961585e-15,0.0157384549926022,0,0,0,0.011554483377711,0.000863471617956123
70.4,0.392042087776023,-0.784019830417297,0.392042087776023,0,0,0,1.00006434720494,0.0141113420439773,-1.59421087442269e-14,0.0141113420439773,0,0,0,0.011183530454458,0.00103276275202703
70.6,0.385262400790645,-0.770467957820354,0.385262400790645,0,0,0,1.00005684537657,0.0124661910824676,-7.42114703022878e-15,0.0124661910824676,0,0,0,0.0108163784625516,0.00121890082231813
70.8,0.378436435720245,-0.756823622307141,0.378436435720245,0,0,0,1.00004925034611,0.0108006009013459,-1.25767452008319e-15,0.0108006009013459,0,0,0,0.0104530772196289,0.0014223574718594
71,0.371563556432483,-0.743085565141629,0.371563556432483,0,0,0,1.00004154858646,0.00911160500971001,-1.44138173618913e-14,0.00911160500971001,0,0,0,0.010093679400077,0.00164364716114226
71.2,0.364643113587909,-0.729252503857909,0.364643113587909,0,0,0,1.00003372388655,0.00739564831968742,-1.20025517302835e-14,0.00739564831968742,0,0,0,0.00973824073084123,0.00188333588069904
71.4,0.357674444271816,-0.715323131589906,0.357674444271816,0,0,0,1.00002575728544,0.00564857269671646,-1.08853898117545e-16,0.00564857269671646,0,0,0,0.00938682020144414,0.00214205033746435
71.6,0.350656871613169,-0.701296116334711,0.350656871613169,0,0,0,1.00001762704698,0.0038656114032161,-7.93896198780786e-15,0.0038656114032161,0,0,0,0.0090394802893622,0.00242048750001538
71.8,0.343589704390077,-0.687170100150213,0.343589704390077,0,0,0,1.00000930867327,0.00204139204737546,1.91339999400242e-15,0.00204139204737546,0,0,0,0.00869628720203815,0.00271942438372677
72,0.336472236621213,-0.672943698289558,0.336472236621213,0,0,0,1.00000077495317,0.000169947229818489,-1.91964635376865e-14,0.000169947229818489,0,0,0,0.00835731113694215,0.00303972795816225
72.2,0.3293037471426,-0.658615498276713,0.3293037471426,0,0,0,0.99999199604052,-0.00175526831405617,9.08127739673859e-16,-0.00175526831405617,0,0,0,0.00802262656122959,0.00338236506577167
72.4,0.322083499169113,-0.644184058928944,0.322083499169113,0,0,0,0.999982939554813,-0.00374135562942107,1.36383959681297e-14,-0.00374135562942107,0,0,0,0.00769231251267818,0.00374841225295469
72.6,0.314810739840034,-0.629647909333243,0.314810739840034,0,0,0,0.999973570696085,-0.0057959463486706,3.61906685175661e-15,-0.0057959463486706,0,0,0,0.00736645292371656,0.004139065431246
72.8,0.307484699747961,-0.615005547784557,0.307484699747961,0,0,0,0.999963852364706,-0.00792717641989708,-1.95728849794463e-14,-0.00792717641989708,0,0,0,0.0070451369704838,0.00455564930687922
73,0.300104592450338,-0.600255440694043,0.300104592450338,0,0,0,0.999953745276415,-0.0101436608821377,-5.13911829758129e-15,-0.0101436608821377,0,0,0,0.00672845944898106,0.00499962654009157
73.2,0.29266961396282,-0.585396021475433,0.29266961396282,0,0,0,0.99994320806293,-0.0124544717994219,2.61943244872498e-16,-0.0124544717994219,0,0,0,0.00641652118049602,0.00547260661976377
73.4,0.285178942233662,-0.570425689416925,0.285178942233662,0,0,0,0.999932197349103,-0.0148691213416919,4.47905601497212e-15,-0.0148691213416919,0,0,0,0.00610942944859756,0.00597635446265926
73.6,0.27763173659828,-0.555342808544954,0.27763173659828,0,0,0,0.999920667798571,-0.0173975517733951,-5.69509717163186e-15,-0.0173975517733951,0,0,0,0.00580729847011487,0.00651279876781915
73.8,0.27002713721306,-0.540145706484554,0.27002713721306,0,0,0,0.99990857212135,-0.0200501337879915,-1.26652160981067e-14,-0.0200501337879915,0,0,0,0.00551024990263018,0.0070840401737233
74,0.262364264467491,-0.524832673319192,0.262364264467491,0,0,0,0.999895861038628,-0.0228376742288524,1.27727689536172e-14,-0.0228376742288524,0,0,0,0.00521841339112963,0.00769235927681849
74.2,0.254642218373581,-0.509401960450715,0.254642218373581,0,0,0,0.999882483202086,-0.0257714337825402,2.5729418595688e-14,-0.0257714337825402,0,0,0,0.00493192715656774,0.00834022457324005
74.4,0.246860077931525,-0.493851779457763,0.246860077931525,0,0,0,0.999868385067293,-0.0288631547425691,7.49747486317176e-15,-0.0288631547425691,0,0,0,0.00465093862920746,0.00903030037947279
74.6,0.2390169004705,-0.478180300948592,0.2390169004705,0,0,0,0.999853510723011,-0.0321250984437619,-4.16333634234434e-15,-0.0321250984437619,0,0,0,0.00437560512969176,0.00976545477098712
74.8,0.231111720963387,-0.462385653401896,0.231111720963387,0,0,0,0.999837801680447,-0.0355700914779941,-5.27355936696949e-15,-0.0355700914779941,0,0,0,0.00410609460087988,0.0105487675494164
75,0.22314355131421,-0.446465921987003,0.22314355131421,0,0,0,0.999821196628645,-0.0392115793381451,-1.59768032137464e-14,-0.0392115793381451,0,0,0,0.00384258639353252,0.0113835382076681
75.2,0.215111379616945,-0.430419147352659,0.215111379616945,0,0,0,0.999803631164116,-0.0430636857093745,1.30000177289702e-14,-0.0430636857093745,0,0,0,0.0035852721089447,0.0122732938076596
75.4,0.207014169384326,-0.414243324371788,0.207014169384326,0,0,0,0.999785037504612,-0.0471412752384936,7.97278909558941e-15,-0.0471412752384936,0,0,0,0.00333435650159277,0.0132217966163413
75.6,0.198850858745165,-0.397936400827761,0.198850858745165,0,0,0,0.99976534419855,-0.0514600172580227,-1.76803016671556e-14,-0.0514600172580227,0,0,0,0.00309005844476623,0.0142330512614819
75.8,0.19062035960865,-0.381496276026088,0.19062035960865,0,0,0,0.999744475843071,-0.0560364476144582,1.32810429320784e-14,-0.0560364476144582,0,0,0,0.00285261196197974,0.0153113110683307
76,0.182321556793955,-0.3649207993138,0.182321556793955,0,0,0,0.999722352825222,-0.0608880254288967,-1.55431223447522e-14,-0.0608880254288967,0,0,0,0.00262226732668436,0.0164610831205093
76.2,0.173953307123438,-0.348207768487036,0.173953307123438,0,0,0,0.999698891102225,-0.0660331812819587,-9.63812363252714e-15,-0.0660331812819587,0,0,0,0.00239929223239059,0.0176871314517867
76.4,0.165514438477573,-0.331354928065464,0.165514438477573,0,0,0,0.999674002038569,-0.0714913529417379,4.18415302405606e-15,-0.0714913529417379,0,0,0,0.00218397303475074,0.0189944776179325
76.6,0.157003748809665,-0.314359967409892,0.157003748809665,0,0,0,0.999647592319617,-0.0772830043080921,-6.15479889276571e-15,-0.0772830043080921,0,0,0,0.00197661606637635,0.0203883977175498
76.8,0.148420005118273,-0.297220518656771,0.148420005118273,0,0,0,0.999619563963923,-0.0834296227116379,1.90542026601292e-14,-0.0834296227116379,0,0,0,0.00177754902414203,0.021874414725531
77,0.139761942375159,-0.27993415444001,0.139761942375159,0,0,0,0.999589814459408,-0.0899536890517843,4.72538674856082e-15,-0.0899536890517843,0,0,0,0.00158712242738366,0.0234582847705898
77.2,0.131028262406404,-0.262498385366676,0.131028262406404,0,0,0,0.99955823705213,-0.096878614467967,-1.47104550762833e-15,-0.096878614467967,0,0,0,0.00140571114365993,0.0251459757278662
77.4,0.122217632724249,-0.244910657208582,0.122217632724249,0,0,0,0.999524721220674,-0.10422863630613,-9.5062846483529e-15,-0.10422863630613,0,0,0,0.00123371597652604,0.0269436362087554
77.6,0.113328685307003,-0.227168347766519,0.113328685307003,0,0,0,0.99948915337408,-0.112028665064343,7.45237205279636e-15,-0.112028665064343,0,0,0,0.0010715653069595,0.028857552714805
77.8,0.104360015324243,-0.209268763358061,0.104360015324243,0,0,0,0.999451417816684,-0.120304072801296,1.70696790036118e-15,-0.120304072801296,0,0,0,0.000919716776575545,0.0308940923858392
78,0.0953101798043247,-0.191209134873623,0.0953101798043247,0,0,0,0.999411398029171,-0.129080412202771,-5.50948175970234e-15,-0.129080412202771,0,0,0,0.000778658996457761,0.0330596284240769
78.2,0.0861776962410522,-0.172986613339028,0.0861776962410522,0,0,0,0.99936897832105,-0.138383054193637,-9.22872889219661e-15,-0.138383054193637,0,0,0,0.000648913260212106,0.0353604449319112
78.4,0.076961041136128,-0.15459826491682,0.076961041136128,0,0,0,0.999324045915402,-0.148236730752412,6.60582699651968e-15,-0.148236730752412,0,0,0,0.000531035233663137,0.0378026175857279
78.6,0.0676586484738151,-0.136041065273412,0.0676586484738151,0,0,0,0.999276493531334,-0.158664968578408,-1.01446628875124e-14,-0.158664968578408,0,0,0,0.00042561658645688,0.0403918663170839
78.8,0.0582689081239758,-0.117311893235975,0.0582689081239758,0,0,0,0.99922622253228,-0.16968939867105,8.32667268468867e-15,-0.16968939867105,0,0,0,0.000333286522839441,0.0431333760348355
79,0.0487901641694318,-0.0984075236627506,0.0487901641694318,0,0,0,0.99917314670785,-0.181328926968615,2.65343302885412e-14,-0.181328926968615,0,0,0,0.000254713160360879,0.0460315814626613
79.2,0.0392207131532811,-0.0793246194548264,0.0392207131532811,0,0,0,0.99911719675201,-0.193598752284143,-8.90953977261688e-15,-0.193598752284143,0,0,0,0.000190604696802881,0.049089912469571
79.4,0.029558802241544,-0.0600597226481404,0.029558802241544,0,0,0,0.99905832548893,-0.206509220277567,-7.38298311375729e-15,-0.206509220277567,0,0,0,0.000141710298242931,0.0523104969393739
79.6,0.0198026272961799,-0.0406092445437808,0.0198026272961799,0,0,0,0.998996513877863,-0.220064506584593,-3.78308495641022e-14,-0.220064506584593,0,0,0,0.00010882063635978,0.0556938193797673
79.8,0.00995033085316809,-0.0209694548648059,0.00995033085316809,0,0,0,0.998931777797509,-0.234261129006352,-8.82627304576999e-15,-0.234261129006352,0,0,0,9.27680030256817e-05,0.0592383352469005
80,0,-0.00113646997149316,0,0,0,0,0.998864175565937,-0.249086298389998,6.21724893790088e-15,-0.249086298389998,0,0,0,9.44259378534019e-05,0.0629400434942082
