t,LE11,LE22,LE33,LE12,LE13,LE23,J,S11,S22,S33,S12,S13,S23,psiE,psiNE
0,0,0,0,0,0,0,1,0,0,0,0,0,0,0,0
0.2,0.00995033085316809,0.00343716562009113,0.00995033085316809,0,0,0,1.0236122853444,0.000517903471674596,-1.72108143968171e-07,0.000517903471674596,0,0,0,4.3849478879739e-06,7.21681107410128e-07
0.4,0.0198026272961797,0.0064660321561297,0.0198026272961797,0,0,0,1.0471490561477,0.00103404321271561,-1.28822793304039e-07,0.00103404321271561,0,0,0,1.71693248792293e-05,2.94956834879612e-06
0.6,0.0295588022415444,0.00908880973711196,0.0295588022415444,0,0,0,1.07058626990326,0.00154800346114286,-9.31243287706409e-08,0.00154800346114286,0,0,0,3.78176621871179e-05,6.77609625300172e-06
0.8,0.0392207131532813,0.0113115588829641,0.0392207131532813,0,0,0,1.09390403983039,0.00205934774436236,-6.43017638150313e-08,0.00205934774436236,0,0,0,6.58233864953408e-05,1.22881160912536e-05
1,0.048790164169432,0.0131408466281748,0.048790164169432,0,0,0,1.11708339261373,0.00256765963439711,-4.16687561976582e-08,0.00256765963439711,0,0,0,0.000100707606073712,1.95665697020605e-05
1.2,0.0582689081239758,0.01458367915656,0.0582689081239758,0,0,0,1.14010629057266,0.00307254324286221,-2.4581207549914e-08,0.00307254324286221,0,0,0,0.000142017917548203,2.86862078147542e-05
1.4,0.0676586484738149,0.0156474481104819,0.0676586484738149,0,0,0,1.16295565742497,0.003573623782598,-1.2430537009011e-08,0.003573623782598,0,0,0,0.000189327249848696,3.97153630402158e-05
1.6,0.0769610411361284,0.016339884468821,0.0769610411361284,0,0,0,1.18561540244471,0.00407054810142397,-4.65162310189435e-09,0.00407054810142397,0,0,0,0.00024223274968101,5.271577811394e-05
1.8,0.0861776962410524,0.0165493516818048,0.0861776962410524,0,0,0,1.20792588501245,0.00456361667771414,-7.60403878209215e-06,0.00456361667771414,0,0,0,0.000300158038164125,6.79836649759573e-05
2,0.0953101798043249,0.0165493516818048,0.0953101798043249,0,0,0,1.23019133142418,0.00505105566254402,-5.91952882352496e-06,0.00505105566254402,0,0,0,0.000363167876644643,8.50537216316383e-05
2.2,0.104360015324243,0.016270773663246,0.104360015324243,0,0,0,1.2523112002755,0.0055331864919959,-3.73990822685744e-09,0.0055331864919959,0,0,0,0.000430838769296446,0.00010406101417195
2.4,0.113328685307003,0.0155607001255661,0.113328685307003,0,0,0,1.27407200034763,0.00601040268121358,-7.42718002984949e-09,0.00601040268121358,0,0,0,0.000502548238614117,0.000125428807384246
2.6,0.122217632724249,0.014521790659243,0.122217632724249,0,0,0,1.2955781664642,0.00648203644460807,-1.45080963648986e-08,0.00648203644460807,0,0,0,0.000578166886676427,0.000148975122918438
2.8,0.131028262406404,0.0131631573177203,0.131028262406404,0,0,0,1.31681992490155,0.00694787267943027,-2.34526785188385e-08,0.00694787267943027,0,0,0,0.000657416233389201,0.000174721078314153
3,0.139761942375159,0.0114940457092863,0.139761942375159,0,0,0,1.33778857089891,0.0074077203505906,-3.39815547983555e-08,0.0074077203505906,0,0,0,0.000740035376816509,0.00020268123266308
3.2,0.148420005118273,0.00952384112122471,0.148420005118273,0,0,0,1.35847650015502,0.00786141257579215,-4.58547853342609e-08,0.00786141257579215,0,0,0,0.000825780241014775,0.000232863654294054
3.4,0.157003748809665,0.00726205719885359,0.157003748809665,0,0,0,1.37887721380045,0.00830880672806114,-5.88588347097754e-08,0.00830880672806114,0,0,0,0.000914422817169293,0.000265270055490084
3.6,0.165514438477573,0.00471832527274917,0.165514438477573,0,0,0,1.39898531973285,0.00874978446904645,-7.28146100463511e-08,0.00874978446904645,0,0,0,0.00100575043002429,0.000299895947402118
3.8,0.173953307123438,0.00190238430261669,0.173953307123438,0,0,0,1.41879653051635,0.00918425169826544,-8.75680835543333e-08,0.00918425169826544,0,0,0,0.00109956502715908,0.000336730812488453
4,0.182321556793955,-0.00117592958442513,0.182321556793955,0,0,0,1.43830765663176,0.00961213840372439,-1.02987579776725e-07,0.00961213840372439,0,0,0,0.00119568248624644,0.000375758295794961
4.2,0.19062035960865,-0.00450669443669802,0.19062035960865,0,0,0,1.45751659451624,0.0100333983984372,-1.18961392310719e-07,0.0100333983984372,0,0,0,0.00129393193682268,0.00041695641517495
4.4,0.198850858745165,-0.008079915235616,0.198850858745165,0,0,0,1.47642230869214,0.0104480089283495,-1.35397461668678e-07,0.0104480089283495,0,0,0,0.00139415509316448,0.000460297791244119
4.6,0.207014169384326,-0.0118855383247726,0.207014169384326,0,0,0,1.49502480763966,0.0108559701394519,-1.52215828230079e-07,0.0108559701394519,0,0,0,0.00149620559596207,0.000505749897036537
4.8,0.215111379616945,-0.0159134680045539,0.215111379616945,0,0,0,1.5133251126932,0.0112573043940332,-1.69345342460742e-07,0.0112573043940332,0,0,0,0.00159994836014338,0.000553275328759494
5,0.22314355131421,-0.0201535855390658,0.22314355131421,0,0,0,1.5313252195707,0.0116520554293663,-1.86728361564747e-07,0.0116520554293663,0,0,0,0.00170525892727796,0.000602832098370773
5.2,0.231111720963387,-0.0245957701527741,0.231111720963387,0,0,0,1.54902805316955,0.0120402873584494,-2.04304882202994e-07,0.0120402873584494,0,0,0,0.00181202282356274,0.000654373945237475
5.4,0.2390169004705,-0.0292299228176825,0.2390169004705,0,0,0,1.5664374144265,0.0124220835124533,-2.22028160301591e-07,0.0124220835124533,0,0,0,0.00192013492097805,0.000707850670756184
5.6,0.246860077931526,-0.034045991573101,0.246860077931526,0,0,0,1.58355792120338,0.0127975451362718,-2.39848563310732e-07,0.0127975451362718,0,0,0,0.00202949880613289,0.000763208488731623
5.8,0.254642218373581,-0.0390339537468773,0.254642218373581,0,0,0,1.60039501476071,0.0131667915260186,-2.57704632354236e-07,0.0131667915260186,0,0,0,0.00214002630847594,0.000820390973631745
6,0.262364264467491,-0.044183926981765,0.262364264467491,0,0,0,1.61695475916918,0.0135299556530259,-2.75568891658709e-07,0.0135299556530259,0,0,0,0.00225163661364082,0.000879338490132996
6.2,0.27002713721306,-0.0494862099663546,0.27002713721306,0,0,0,1.63324374420887,0.0138871820009401,-2.93380879012525e-07,0.0138871820009401,0,0,0,0.00236425561720434,0.000939988280622182
6.4,0.27763173659828,-0.054931221395068,0.27763173659828,0,0,0,1.64926915232476,0.0142386280576306,-3.11094297097275e-07,0.0142386280576306,0,0,0,0.00247781564957981,0.00100227607155482
6.6,0.285178942233662,-0.0605095716301372,0.285178942233662,0,0,0,1.66503861080664,0.0145844610628385,-3.28655697812846e-07,0.0145844610628385,0,0,0,0.00259225477226755,0.0010661359514305
6.8,0.29266961396282,-0.0662120916318559,0.29266961396282,0,0,0,1.68056010938513,0.014924856208227,-3.46018822343017e-07,0.014924856208227,0,0,0,0.00270751623741274,0.00113150076980476
7,0.300104592450338,-0.0720298599572986,0.300104592450338,0,0,0,1.69584191909261,0.0152599948499772,-3.63128552760203e-07,0.0152599948499772,0,0,0,0.00282354797594739,0.00119830252447256
7.2,0.307484699747961,-0.0779542284110887,0.307484699747961,0,0,0,1.71089251181149,0.0155900627541252,-3.79940198544024e-07,0.0155900627541252,0,0,0,0.00294030211328659,0.00126647273985169
7.4,0.314810739840034,-0.0839768447626709,0.314810739840034,0,0,0,1.72572048356967,0.0159152484082359,-3.96407106093358e-07,0.0159152484082359,0,0,0,0.00305773451885096,0.00133594282389632
7.6,0.322083499169113,-0.0900896729506892,0.322083499169113,0,0,0,1.74033448130497,0.0162357414171714,-4.12484306700628e-07,0.0162357414171714,0,0,0,0.00317580438835518,0.00140664440523225
7.8,0.3293037471426,-0.0962850102358677,0.3293037471426,0,0,0,1.75474313441532,0.0165517310045523,-4.28133648418955e-07,0.0165517310045523,0,0,0,0.00329447386082944,0.00147850964531321
8,0.336472236621213,-0.102555500863853,0.336472236621213,0,0,0,1.768954992261,0.0168634046382706,-4.43315973788078e-07,0.0168634046382706,0,0,0,0.00341370767169859,0.00155147152073219
8.2,0.343589704390077,-0.108894146718697,0.343589704390077,0,0,0,1.78297846716077,0.0171709467875815,-4.58005491432018e-07,0.0171709467875815,0,0,0,0.00353347283965701,0.00162546407839812
8.4,0.350656871613169,-0.115294314015275,0.350656871613169,0,0,0,1.79682178491083,0.0174745378279475,-4.72169705955511e-07,0.0174745378279475,0,0,0,0.00365373838994008,0.00170042265434803
8.6,0.357674444271816,-0.121749737406654,0.357674444271816,0,0,0,1.81049294071751,0.0177743530867866,-4.85793703293783e-07,0.0177743530867866,0,0,0,0.00377447510802844,0.00177628406676123
8.8,0.364643113587909,-0.128254520159947,0.364643113587909,0,0,0,1.82399966322348,0.0180705620437195,-4.98858457247814e-07,0.0180705620437195,0,0,0,0.00389565532741328,0.00185298677039635
9,0.371563556432483,-0.134803131928436,0.371563556432483,0,0,0,1.83734938415137,0.0183633276710412,-5.11353203596493e-07,0.0183633276710412,0,0,0,0.00401725274460601,0.00193047098480418
9.2,0.378436435720245,-0.141390403611691,0.378436435720245,0,0,0,1.85054921467366,0.0186528059155887,-5.23275590434691e-07,0.0186528059155887,0,0,0,0.00413924226181027,0.00200867879102375
9.4,0.385262400790645,-0.148011519655719,0.385262400790645,0,0,0,1.86360592805593,0.0189391453137941,-5.34623055291339e-07,0.0189391453137941,0,0,0,0.0042615998545493,0.00208755419893162
9.6,0.392042087776024,-0.154662008494145,0.392042087776024,0,0,0,1.8765259474174,0.0192224867265559,-5.453993847538e-07,0.0192224867265559,0,0,0,0.00438430246029372,0.00216704319119666
9.8,0.398776119957368,-0.161337731042556,0.398776119957368,0,0,0,1.88931533886396,0.0195029631868788,-5.55611184404475e-07,0.0195029631868788,0,0,0,0.00450732788700724,0.00224709374240748
10,0.405465108108164,-0.168034867922377,0.405465108108164,0,0,0,1.90197980879995,0.01978069984512,-5.6527627438456e-07,0.01978069984512,0,0,0,0.00463065473785095,0.00232765581951489
10.2,0.412109650826833,-0.1747499051083,0.412109650826833,0,0,0,1.91452470603555,0.0200558140059698,-5.74405220289328e-07,0.0200558140059698,0,0,0,0.00475426235188309,0.00240868135992617
10.4,0.418710334858185,-0.181479619192361,0.418710334858185,0,0,0,1.92695502644868,0.0203284152361224,-5.8301220577997e-07,0.0203284152361224,0,0,0,0.00487813075533223,0.00249012423915658
10.6,0.425267735404344,-0.188221061998916,0.425267735404344,0,0,0,1.9392754206719,0.0205986055362105,-5.91121751597826e-07,0.0205986055362105,0,0,0,0.00500224062334847,0.00257194022531299
10.8,0.431782416425538,-0.194971544518782,0.431782416425538,0,0,0,1.95149020484846,0.0208664795688822,-5.98753111050176e-07,0.0208664795688822,0,0,0,0.00512657325138376,0.00265408691964286
11,0.438254930931155,-0.201728621090021,0.438254930931155,0,0,0,1.96360337262439,0.0211321249253061,-6.05927306442447e-07,0.0211321249253061,0,0,0,0.00525111053206403,0.0027365236931336
11.2,0.444685821261446,-0.208490073568662,0.444685821261446,0,0,0,1.97561860879725,0.0213956224251695,-6.1266849166533e-07,0.0213956224251695,0,0,0,0.00537583493772603,0.00281921161653617
11.4,0.451075619360217,-0.215253895662437,0.451075619360217,0,0,0,1.98753930421803,0.0216570464415581,-6.19000113640314e-07,0.0216570464415581,0,0,0,0.00550072950735242,0.0029021133857306
11.6,0.457424847038875,-0.22201827765632,0.457424847038875,0,0,0,1.99936857141947,0.0219164652421441,-6.249418303024e-07,0.0219164652421441,0,0,0,0.00562577783653298,0.00298519324513452
11.8,0.46373401623214,-0.228781591895915,0.46373401623214,0,0,0,2.01110926015127,0.0221739413372523,-6.30524269880708e-07,0.0221739413372523,0,0,0,0.00575096406869661,0.00306841691380584
12,0.470003629245736,-0.235542378182655,0.470003629245736,0,0,0,2.022763974425,0.0224295318392906,-6.35760300817662e-07,0.0224295318392906,0,0,0,0.00587627289013654,0.00315175150423368
12.2,0.476234178996372,-0.242299330865065,0.476234178996372,0,0,0,2.0343350874043,0.0226832888099629,-6.40686373303348e-07,0.0226832888099629,0,0,0,0.00600168952228482,0.00323516545574296
12.4,0.482426149244293,-0.24905125263736,0.482426149244293,0,0,0,2.04582482554586,0.0229352610765053,-6.45304569356353e-07,0.0229352610765053,0,0,0,0.00612719983052955,0.00331862940192623
12.6,0.488580014818671,-0.255797134179635,0.488580014818671,0,0,0,2.05723509724039,0.0231854905092319,-6.4965350039109e-07,0.0231854905092319,0,0,0,0.0062527900046374,0.00340211348041541
12.8,0.494696241836107,-0.262536056616073,0.494696241836107,0,0,0,2.06856768271028,0.0234340161563767,-6.53749080408578e-07,0.0234340161563767,0,0,0,0.00637844684960357,0.00348558971761428
13,0.500775287912489,-0.26926720787702,0.500775287912489,0,0,0,2.07982419383842,0.0236808733717215,-6.5760168985185e-07,0.0236808733717215,0,0,0,0.00650415768693984,0.00356903120185247
13.2,0.506817602368452,-0.275989873060121,0.506817602368452,0,0,0,2.09100608739139,0.0239260941172687,-6.61241550965752e-07,0.0239260941172687,0,0,0,0.00662991034757944,0.00365241203266797
13.4,0.512823626428664,-0.28270342444677,0.512823626428664,0,0,0,2.10211467974729,0.0241697072632221,-6.64672727985344e-07,0.0241697072632221,0,0,0,0.00675569316775634,0.00373570726059484
13.6,0.518793793415168,-0.289407313552651,0.518793793415168,0,0,0,2.11315115810873,0.0244117388575199,-6.67920390912125e-07,0.0244117388575199,0,0,0,0.00688149497973573,0.00381889284974023
13.8,0.524728528934982,-0.296101062622784,0.524728528934982,0,0,0,2.12411659352653,0.0246522123936691,-6.70995264538676e-07,0.0246522123936691,0,0,0,0.0070073051059996,0.00390194562852212
14,0.53062825106217,-0.302784257466799,0.53062825106217,0,0,0,2.13501195171425,0.0248911490550022,-6.73907817487496e-07,0.0248911490550022,0,0,0,0.00713311335043892,0.00398484325457193
14.2,0.536493370514568,-0.309456540796736,0.536493370514568,0,0,0,2.14583810333442,0.0251285679446386,-6.76677029624873e-07,0.0251285679446386,0,0,0,0.007258909989298,0.00406756418285897
14.4,0.542324290825362,-0.316117605709125,0.542324290825362,0,0,0,2.15659583447885,0.0253644863052749,-6.79310307352687e-07,0.0253644863052749,0,0,0,0.00738468576295464,0.00415008763192417
14.6,0.548121408509688,-0.322767190133666,0.548121408509688,0,0,0,2.16728585553871,0.0255989197193934,-6.81814858977808e-07,0.0255989197193934,0,0,0,0.00751043186577334,0.00423239356026242
14.8,0.553885113226438,-0.329405071671512,0.553885113226438,0,0,0,2.17790880963843,0.0258318822966514,-6.842025614337e-07,0.0258318822966514,0,0,0,0.00763613993588336,0.00431446264496108
15,0.559615787935423,-0.336031062787572,0.559615787935423,0,0,0,2.18846528067372,0.026063386849105,-6.86487860696028e-07,0.026063386849105,0,0,0,0.00776180204493114,0.00439627626215834
15.2,0.565313809050061,-0.342645006200937,0.565313809050061,0,0,0,2.1989558012623,0.026293445056374,-6.88669383627077e-07,0.026293445056374,0,0,0,0.00788741068823809,0.00447781646699167
15.4,0.570979546585738,-0.349246771364348,0.570979546585738,0,0,0,2.20938085861702,0.0265220676106093,-6.90762276187723e-07,0.0265220676106093,0,0,0,0.00801295877249453,0.00455906598693922
15.6,0.576613364303994,-0.355836250418025,0.576613364303994,0,0,0,2.21974090183978,0.0267492643604617,-6.92766230440262e-07,0.0267492643604617,0,0,0,0.00813843960607723,0.00464000820398424
15.8,0.582215619852664,-0.362413355222084,0.582215619852664,0,0,0,2.23003634709122,0.0269750444356022,-6.9468778357562e-07,0.0269750444356022,0,0,0,0.00826384688686154,0.00472062715040429
16,0.587786664902119,-0.368978014309687,0.587786664902119,0,0,0,2.24026758314687,0.027199416365681,-6.96534540416821e-07,0.027199416365681,0,0,0,0.00838917469115564,0.00480090750046962
16.2,0.593326845277734,-0.375530170122241,0.593326845277734,0,0,0,2.25043497652807,0.0274223881898329,-6.9830914487673e-07,0.0274223881898329,0,0,0,0.00851441746256181,0.0048808345636233
16.4,0.598836501088704,-0.382069776702414,0.598836501088704,0,0,0,2.26053887578593,0.0276439675549564,-7.00017941869524e-07,0.0276439675549564,0,0,0,0.00863957000019993,0.00496039428218039
16.6,0.60431596685333,-0.388596797322079,0.60431596685333,0,0,0,2.27057961608944,0.0278641618092554,-7.0165682779233e-07,0.0278641618092554,0,0,0,0.0087646274478583,0.00503957322511518
16.8,0.609765571620894,-0.395111202862729,0.609765571620894,0,0,0,2.28055752225458,0.0280829780816327,-7.03237179638244e-07,0.0280829780816327,0,0,0,0.00888958528156439,0.00511835859152256
17,0.615185639090233,-0.401612969651173,0.615185639090233,0,0,0,2.29047291313007,0.0283004233626255,-7.04755366176535e-07,0.0283004233626255,0,0,0,0.00901443929945282,0.00519673820225296
17.2,0.62057648772511,-0.408102078205997,0.62057648772511,0,0,0,2.30032610402701,0.0285165045698283,-7.06217031787998e-07,0.0285165045698283,0,0,0,0.00913918560953017,0.00527470050408203
17.4,0.625938430866495,-0.414569362085024,0.625938430866495,0,0,0,2.31013854666859,0.0287313383312779,-5.67160207687323e-12,0.0287313383312779,0,0,0,0.009263847011487,0.00535207443996609
17.6,0.631271776841858,-0.4210331332054,0.631271776841858,0,0,0,2.31986830847401,0.0289447120077028,-5.73553357585688e-12,0.0289447120077028,0,0,0,0.00938836708147004,0.00542916885957967
17.8,0.636576829071551,-0.427484198863077,0.636576829071551,0,0,0,2.3295368227099,0.0291567425248933,-5.73038838602713e-12,0.0291567425248933,0,0,0,0.00951276951401464,0.00550581506498269
18,0.641853886172395,-0.43392254327412,0.641853886172395,0,0,0,2.33914441775335,0.0293674370841968,-5.73152289518042e-12,0.0293674370841968,0,0,0,0.00963705154744134,0.00558200398701393
18.2,0.647103242058539,-0.44034814917555,0.647103242058539,0,0,0,2.34869143041185,0.0295768030717962,-5.72853223190783e-12,0.0295768030717962,0,0,0,0.00976121067545214,0.00565772717431338
18.4,0.65232518603969,-0.446760997100985,0.65232518603969,0,0,0,2.35817820754521,0.0297848480943255,-5.71834940510385e-12,0.0297848480943255,0,0,0,0.00988524463653573,0.00573297679109625
18.6,0.657520002916794,-0.45316106476091,0.657520002916794,0,0,0,2.36760510748278,0.029991580009954,-5.71328748200095e-12,0.029991580009954,0,0,0,0.0100091514035208,0.00580774561427969
18.8,0.662687973075237,-0.459548326520001,0.662687973075237,0,0,0,2.37697250124606,0.0301970069551771,-5.70225117124679e-12,0.0301970069551771,0,0,0,0.0101329291732819,0.00588202702987869
19,0.667829372575656,-0.465922752965823,0.667829372575656,0,0,0,2.38628077358308,0.0304011373675256,-5.69743557887747e-12,0.0304011373675256,0,0,0,0.0102565763565986,0.00595581502862122
19.2,0.672944473242426,-0.472284310559624,0.672944473242426,0,0,0,2.39553032383035,0.0306039800044423,-5.68543823131762e-12,0.0306039800044423,0,0,0,0.0103800915681802,0.00602910420068005
19.4,0.678033542749897,-0.478632961365378,0.678033542749897,0,0,0,2.40472156660568,0.0308055439585044,-5.68341554374463e-12,0.0308055439585044,0,0,0,0.0105034736168538,0.00610188972951518
19.6,0.683096844706444,-0.484968662848399,0.683096844706444,0,0,0,2.41385493234745,0.0310058386692151,-5.67111635429995e-12,0.0310058386692151,0,0,0,0.0106267214959283,0.00617416738472963
19.8,0.688134638736401,-0.491291367740987,0.688134638736401,0,0,0,2.42293086770171,0.0312048739315313,-5.66550625857865e-12,0.0312048739315313,0,0,0,0.0107498343737315,0.00624593351398455
20,0.693147180559945,-0.497601023966535,0.693147180559945,0,0,0,2.4319498357736,0.0314026599013393,-5.64865168528605e-12,0.0314026599013393,0,0,0,0.0108728115843343,0.00631718503388123
20.2,0.698134722070984,-0.503897562229439,0.698134722070984,0,0,0,2.44091234648847,0.0315992077613121,-5.63984969836895e-12,0.0315992077613121,0,0,0,0.0109956526487433,0.00638791987892595
20.4,0.703097511413114,-0.510180931182885,0.703097511413114,0,0,0,2.44981887105821,0.0317945278451183,-5.62348778654354e-12,0.0317945278451183,0,0,0,0.0111183571791618,0.00645813569330555
20.6,0.708035793053696,-0.516451064103543,0.708035793053696,0,0,0,2.45866992297039,0.0319886314135446,-5.60779547797985e-12,0.0319886314135446,0,0,0,0.01124092495359,0.00652783104818388
20.8,0.712949807856125,-0.522707889629054,0.712949807856125,0,0,0,2.46746603203092,0.0321815300852394,-5.60261212423363e-12,0.0321815300852394,0,0,0,0.0113633558806259,0.0065970050389933
21,0.717839793150317,-0.528951331910385,0.717839793150317,0,0,0,2.47620774404481,0.0323732358296931,-5.58066093336862e-12,0.0323732358296931,0,0,0,0.011485649991183,0.00666565727166481
21.2,0.72270598280149,-0.535181310799301,0.72270598280149,0,0,0,2.48489562040113,0.0325637609581789,-5.56441004384567e-12,0.0325637609581789,0,0,0,0.0116078074304209,0.00673378784803169
21.4,0.727548607277278,-0.54139774206376,0.727548607277278,0,0,0,2.49353023757806,0.0327531181128622,-5.55067450336288e-12,0.0327531181128622,0,0,0,0.0117298284499005,0.00680139735038753
21.6,0.732367893713227,-0.547600537630801,0.732367893713227,0,0,0,2.50211218656791,0.0329413202542026,-5.53661630431357e-12,0.0329413202542026,0,0,0,0.0118517133999654,0.00686848682531944
21.8,0.73716406597672,-0.553789605851922,0.73716406597672,0,0,0,2.510642072233,0.033128380646829,-5.51880416366224e-12,0.033128380646829,0,0,0,0.0119734627223546,0.00693505776684788
22,0.741937344729377,-0.559964851788077,0.741937344729377,0,0,0,2.51912051259887,0.0333143128440435,-5.50036752255956e-12,0.0333143128440435,0,0,0,0.0120950769430537,0.00700111209894858
22.2,0.746687947487975,-0.566126177510789,0.746687947487975,0,0,0,2.52754813809279,0.0334991306711142,-5.47876327638974e-12,0.0334991306711142,0,0,0,0.012216556665388,0.00706665215752088
22.4,0.751416088683921,-0.572273482416838,0.751416088683921,0,0,0,2.53592559073325,0.0336828482075076,-5.45499409532191e-12,0.0336828482075076,0,0,0,0.0123379025633623,0.00713168067188619
22.6,0.756121979721334,-0.578406663553246,0.756121979721334,0,0,0,2.54425352327861,0.0338654797682158,-5.43179043410724e-12,0.0338654797682158,0,0,0,0.0124591153752508,0.00719620074588493
22.8,0.76080582903376,-0.584525615950038,0.76080582903376,0,0,0,2.55253259834085,0.0340470398843242,-5.41886674421121e-12,0.0340470398843242,0,0,0,0.0125801958974407,0.00726021583865342
23,0.765467842139572,-0.590630232957605,0.765467842139572,0,0,0,2.56076348747256,0.0342275432829716,-5.39667616150652e-12,0.0342275432829716,0,0,0,0.0127011449785331,0.00732372974514707
23.2,0.770108221696074,-0.596720406587688,0.770108221696074,0,0,0,2.56894687022988,0.0344070048668234,-5.36447275489849e-12,0.0344070048668234,0,0,0,0.0128219635137002,0.00738674657651879
23.4,0.774727167552368,-0.602796027854197,0.774727167552368,0,0,0,2.57708343322105,0.0345854396932108,-5.34609509439399e-12,0.0345854396932108,0,0,0,0.0129426524393032,0.00744927074039831
23.6,0.779324876800998,-0.60885698711142,0.779324876800998,0,0,0,2.58517386914755,0.0347628629530679,-5.32441798983818e-12,0.0347628629530679,0,0,0,0.0130632127277717,0.00751130692114045
23.8,0.78390154382841,-0.614903174389811,0.78390154382841,0,0,0,2.59321887583744,0.0349392899497636,-5.29706833951593e-12,0.0349392899497636,0,0,0,0.0131836453827408,0.00757286006016419
24,0.78845736036427,-0.620934479725512,0.78845736036427,0,0,0,2.60121915528176,0.0351147360779669,-5.27589083532121e-12,0.0351147360779669,0,0,0,0.0133039514344482,0.00763393533640872
24.2,0.792992515529661,-0.626950793482085,0.792992515529661,0,0,0,2.60917541267824,0.0352892168026558,-5.24403784285532e-12,0.0352892168026558,0,0,0,0.0134241319353893,0.00769453814697769
24.4,0.797507195884188,-0.632952006664647,0.797507195884188,0,0,0,2.61708835548282,0.0354627476383485,-5.22048376749851e-12,0.0354627476383485,0,0,0,0.0135441879562261,0.00775467408807372
24.6,0.802001585472028,-0.638938011222349,0.802001585472028,0,0,0,2.62495869248008,0.0356353441286852,-5.19412290955756e-12,0.0356353441286852,0,0,0,0.0136641205819484,0.00781434893622282
24.8,0.806475865866949,-0.644908700340673,0.806475865866949,0,0,0,2.63278713286972,0.0358070218264148,-5.16369585978893e-12,0.0358070218264148,0,0,0,0.0137839309082829,0.00787356862990509
25,0.810930216216329,-0.650863968720853,0.810930216216329,0,0,0,2.64057438537696,0.0359777962738854,-5.13716846839429e-12,0.0359777962738854,0,0,0,0.0139036200383439,0.00793233925160561
25.2,0.815364813284195,-0.656803712845624,0.815364813284195,0,0,0,2.6483211573898,0.0361476829841089,-5.10106193396531e-12,0.0361476829841089,0,0,0,0.0140231890795245,0.00799066701033562
25.4,0.819779831493312,-0.662727831231871,0.819779831493312,0,0,0,2.65602815412256,0.0363166974224459,-5.07636641056131e-12,0.0363166974224459,0,0,0,0.0141426391406164,0.00804855822469507
25.6,0.824175442966349,-0.66863622466716,0.824175442966349,0,0,0,2.66369607781461,0.0364848549889969,-5.0450130184565e-12,0.0364848549889969,0,0,0,0.0142619713291583,0.00810601930645934
25.8,0.828551817566148,-0.674528796432605,0.828551817566148,0,0,0,2.67132562695876,0.0366521710017121,-5.01288940912836e-12,0.0366521710017121,0,0,0,0.0143811867490006,0.00816305674479042
26,0.832909122935104,-0.680405452509271,0.832909122935104,0,0,0,2.67891749556755,0.0368186606802884,-4.9840895299802e-12,0.0368186606802884,0,0,0,0.0145002864980824,0.00821967709104199
26.2,0.837247524533702,-0.686266101769028,0.837247524533702,0,0,0,2.68647237247597,0.0369843391308751,-4.95406840550494e-12,0.0369843391308751,0,0,0,0.0146192716664116,0.00827588694420964
26.4,0.841567185678219,-0.692110656149762,0.841567185678219,0,0,0,2.69399094068188,0.037149221331613,-4.91878759945052e-12,0.037149221331613,0,0,0,0.01473814333424,0.00833169293704309
26.6,0.845868267577609,-0.697939030814731,0.845868267577609,0,0,0,2.70147387672532,0.0373133221190292,-4.8856231560368e-12,0.0373133221190292,0,0,0,0.0148569025704257,0.00838710172283133
26.8,0.85015092936961,-0.703751144295859,0.85015092936961,0,0,0,2.70892185010842,0.0374766561753044,-4.85369036629102e-12,0.0374766561753044,0,0,0,0.0149755504309735,0.00844211996286091
27,0.854415328156068,-0.709546918621739,0.854415328156068,0,0,0,2.71633552275436,0.0376392380164136,-4.82102552323838e-12,0.0376392380164136,0,0,0,0.0150940879577452,0.00849675431456827
27.2,0.858661619037519,-0.71532627943034,0.858661619037519,0,0,0,2.72371554850649,0.037801081981144,-4.79353709503805e-12,0.037801081981144,0,0,0,0.0152125161773303,0.00855101142038172
27.4,0.86288995514704,-0.721089156066316,0.86288995514704,0,0,0,2.73106257266837,0.0379622022209936,-4.75237557640007e-12,0.0379622022209936,0,0,0,0.0153308361000686,0.00860489789723909
27.6,0.867100487683383,-0.726835481664746,0.867100487683383,0,0,0,2.73837723158072,0.0381226126909235,-4.71647373934125e-12,0.0381226126909235,0,0,0,0.0154490487192161,0.00865842032681191
27.8,0.871293365943419,-0.73256519321951,0.871293365943419,0,0,0,2.74566015224066,0.0382823271409803,-4.68515157225902e-12,0.0382823271409803,0,0,0,0.0155671550102446,0.00871158524637164
28,0.8754687373539,-0.73827823163877,0.8754687373539,0,0,0,2.7529119519573,0.038441359108748,-4.64897217944404e-12,0.038441359108748,0,0,0,0.0156851559302676,0.00876439914033654
28.2,0.879626747502564,-0.743974541787585,0.879626747502564,0,0,0,2.76013323804412,0.0385997219126165,-4.61790675143625e-12,0.0385997219126165,0,0,0,0.0158030524175818,0.00881686843247192
28.4,0.883767540168595,-0.749654072517323,0.883767540168595,0,0,0,2.76732460754972,0.0387574286458543,-4.57793872254975e-12,0.0387574286458543,0,0,0,0.0159208453913185,0.00886899947870482
28.6,0.887891257352457,-0.755316776684156,0.887891257352457,0,0,0,2.77448664702102,0.0389144921714412,-4.54053461496073e-12,0.0389144921714412,0,0,0,0.0160385357511941,0.00892079856057956
28.8,0.891998039305111,-0.760962611155453,0.891998039305111,0,0,0,2.78161993230285,0.0390709251176554,-4.50781426075686e-12,0.0390709251176554,0,0,0,0.0161561243773543,0.00897227187928757
29,0.896088024556636,-0.766591536805967,0.896088024556636,0,0,0,2.78872502836901,0.0392267398743684,-4.47233222677923e-12,0.0392267398743684,0,0,0,0.0162736121303013,0.00902342555028181
29.2,0.900161349944271,-0.772203518504269,0.900161349944271,0,0,0,2.795802489184,0.0393819485900241,-4.43819286877201e-12,0.0393819485900241,0,0,0,0.0163909998509002,0.00907426559845245
29.4,0.904218150639886,-0.777798525089476,0.904218150639886,0,0,0,2.80285285759565,0.0395365631692721,-4.39869668467097e-12,0.0395365631692721,0,0,0,0.0165082883604539,0.00912479795382189
29.6,0.908258560176891,-0.783376529339889,0.908258560176891,0,0,0,2.80987666525449,0.0396905952712136,-4.3651020298352e-12,0.0396905952712136,0,0,0,0.0166254784608425,0.0091750284477609
29.8,0.912282710476616,-0.788937507932926,0.912282710476616,0,0,0,2.8168744325618,0.0398440563082445,-4.32832589214449e-12,0.0398440563082445,0,0,0,0.0167425709347193,0.00922496280967346
30,0.916290731874155,-0.794481441398466,0.916290731874155,0,0,0,2.8238466686408,0.0399969574454381,-4.29057483986028e-12,0.0399969574454381,0,0,0,0.0168595665457573,0.00927460666415851
30.2,0.920282753143693,-0.800008314065082,0.920282753143693,0,0,0,2.83079387133259,0.0401493096004528,-4.25822571648027e-12,0.0401493096004528,0,0,0,0.0169764660389413,0.00932396552859757
30.4,0.924258901523332,-0.80551811399993,0.924258901523332,0,0,0,2.83771652721485,0.0403011234439286,-4.21396251226724e-12,0.0403011234439286,0,0,0,0.017093270140899,0.00937304481114982
30.6,0.928219302739429,-0.81101082998316,0.928219302739429,0,0,0,2.8446151200612,0.0404524095850335,-4.1826195285033e-12,0.0404524095850335,0,0,0,0.0172099795599684,0.00942184994271768
30.8,0.932164081030445,-0.816486459966128,0.932164081030445,0,0,0,2.85149010668176,0.0406031780416031,-4.14444520369095e-12,0.0406031780416031,0,0,0,0.0173265949870823,0.00947038599183214
31,0.936093359170335,-0.821945002780557,0.936093359170335,0,0,0,2.85834194029165,0.0407534387526499,-4.10809233852838e-12,0.0407534387526499,0,0,0,0.0174431170960319,0.00951865803278674
31.2,0.940007258491471,-0.82738646070439,0.940007258491471,0,0,0,2.86517106311716,0.0409032014161964,-4.07441441696577e-12,0.0409032014161964,0,0,0,0.0175595465438627,0.00956667102649736
31.4,0.943905898907129,-0.832810839379635,0.943905898907129,0,0,0,2.87197790650309,0.0410524754916285,-4.03164307494208e-12,0.0410524754916285,0,0,0,0.0176758839713324,0.00961442982021957
31.6,0.947789398933526,-0.838218147727825,0.947789398933526,0,0,0,2.87876289103241,0.0412012702023408,-3.99994967703599e-12,0.0412012702023408,0,0,0,0.0177921300033815,0.00966193914755287
31.8,0.951657875711446,-0.843608397861896,0.951657875711446,0,0,0,2.88552642666145,0.0413495945386663,-3.96127922130951e-12,0.0413495945386663,0,0,0,0.0179082852496137,0.00970920362866642
32,0.955511445027436,-0.848981604997471,0.955511445027436,0,0,0,2.89226891286214,0.0414974572610313,-3.92903765078501e-12,0.0414974572610313,0,0,0,0.0180243503047847,0.00975622777079447
32.2,0.959350221334602,-0.854337787361262,0.959350221334602,0,0,0,2.89899073877785,0.0416448669033433,-3.88998208644686e-12,0.0416448669033433,0,0,0,0.0181403257492944,0.00980301596891014
32.4,0.963174317773006,-0.859676966099355,0.963174317773006,0,0,0,2.90569228338485,0.0417918317765582,-3.85697376814598e-12,0.0417918317765582,0,0,0,0.0182562121496817,0.00984957250662287
32.6,0.966983846189673,-0.864999165183626,0.966983846189673,0,0,0,2.91237391566434,0.0419383599724291,-3.82048906399923e-12,0.0419383599724291,0,0,0,0.0183720100591189,0.00989590155722466
32.8,0.970778917158225,-0.870304411318458,0.970778917158225,0,0,0,2.91903599477876,0.0420844593673916,-3.78669318124025e-12,0.0420844593673916,0,0,0,0.018487720017904,0.00994200718491884
33,0.974559639998131,-0.875592733846569,0.974559639998131,0,0,0,2.9256788702558,0.0422301376265841,-3.74858477591999e-12,0.0422301376265841,0,0,0,0.0186033425539486,0.00998789334617358
33.2,0.978326122793608,-0.880864164655448,0.978326122793608,0,0,0,2.93230288217551,0.0423754022079675,-3.71684627520352e-12,0.0423754022079675,0,0,0,0.0187188781832612,0.0100335638912193
33.4,0.982078472412158,-0.886118738083402,0.982078472412158,0,0,0,2.93890836136354,0.0425202603665421,-3.67954625102307e-12,0.0425202603665421,0,0,0,0.0188343274104221,0.0100790225656403
33.6,0.985816794522765,-0.891356490826947,0.985816794522765,0,0,0,2.94549562958515,0.0426647191586259,-3.64697508303813e-12,0.0426647191586259,0,0,0,0.0189496907290514,0.0101242730120885
33.8,0.989541193613748,-0.896577461848145,0.989541193613748,0,0,0,2.9520649997442,0.0428087854461975,-3.61448371233308e-12,0.0428087854461975,0,0,0,0.0190649686222671,0.0101693187720628
34,0.993251773010283,-0.90178169228341,0.993251773010283,0,0,0,2.95861677608223,0.0429524659012736,-3.58063925731678e-12,0.0429524659012736,0,0,0,0.0191801615631329,0.0102141632877777
34.2,0.996948634891609,-0.906969225353171,0.996948634891609,0,0,0,2.96515125437963,0.0430957670103157,-3.54095919252728e-12,0.0430957670103157,0,0,0,0.0192952700150956,0.0102588099040898
34.4,1.00063188030791,-0.912140106273093,1.00063188030791,0,0,0,2.97166872215651,0.0432386950786478,-3.51119133767952e-12,0.0432386950786478,0,0,0,0.0194102944324106,0.0103032618704849
34.6,1.00430160919687,-0.917294382166003,1.00430160919687,0,0,0,2.97816945887573,0.0433812562348848,-3.48018835971686e-12,0.0433812562348848,0,0,0,0.0195252352605548,0.0103475223430912
34.8,1.00795792039998,-0.922432101976109,1.00795792039998,0,0,0,2.98465373614324,0.0435234564353426,-3.44257261586378e-12,0.0435234564353426,0,0,0,0.019640092936628,0.0103915943867472
35,1.01160091167848,-0.927553316384662,1.01160091167848,0,0,0,2.99112181790818,0.0436653014684333,-3.41358885602716e-12,0.0436653014684333,0,0,0,0.019754867889741,0.0104354809770934
35.2,1.01523067972906,-0.932658077726738,1.01523067972906,0,0,0,2.99757396066345,0.0438067969590398,-3.38047645431772e-12,0.0438067969590398,0,0,0,0.0198695605413902,0.0104791850026641
35.4,1.01884732019925,-0.937746439910676,1.01884732019925,0,0,0,3.00401041364218,0.0439479483728459,-3.34559810410973e-12,0.0439479483728459,0,0,0,0.0199841713058195,0.0105227092670172
35.6,1.02245092770255,-0.942818458338853,1.02245092770255,0,0,0,3.0104314190138,0.0440887610206294,-3.3135820476371e-12,0.0440887610206294,0,0,0,0.0200987005903689,0.0105660564908536
35.8,1.02604159583327,-0.947874189830386,1.02604159583327,0,0,0,3.01683721207785,0.0442292400625077,-3.28116353531804e-12,0.0442292400625077,0,0,0,0.0202131487958097,0.0106092293141379
36,1.02961941718116,-0.952913692546014,1.02961941718116,0,0,0,3.02322802145465,0.0443693905121249,-3.24902951764905e-12,0.0443693905121249,0,0,0,0.020327516316666,0.0106522302982188
36.2,1.03318448334565,-0.957937025914841,1.03318448334565,0,0,0,3.02960406927366,0.0445092172407818,-3.22111781692058e-12,0.0445092172407818,0,0,0,0.0204418035415243,0.0106950619279363
36.4,1.03673688495002,-0.962944250562969,1.03673688495002,0,0,0,3.03596557135922,0.0446487249815029,-3.19019116679087e-12,0.0446487249815029,0,0,0,0.0205560108533284,0.0107377266137097
36.6,1.04027671165515,-0.967935428244473,1.04027671165515,0,0,0,3.04231273741238,0.0447879183330315,-3.15601017542022e-12,0.0447879183330315,0,0,0,0.0206701386296627,0.0107802266936168
36.8,1.04380405217311,-0.972910621774259,1.04380405217311,0,0,0,3.0486457711898,0.044926801763756,-3.12743927977088e-12,0.044926801763756,0,0,0,0.0207841872430229,0.0108225644354454
37,1.04731899428056,-0.977869894962731,1.04731899428056,0,0,0,3.05496487068008,0.0450653796155636,-3.09893083416668e-12,0.0450653796155636,0,0,0,0.0208981570610733,0.0108647420387137
37.2,1.05082162483176,-0.982813312552877,1.05082162483176,0,0,0,3.06127022827542,0.0452036561076137,-3.06772662828081e-12,0.0452036561076137,0,0,0,0.0210120484468932,0.0109067616366731
37.4,1.05431202977153,-0.987740940159201,1.05431202977153,0,0,0,3.06756203094018,0.0453416353400344,-3.03234173881783e-12,0.0453416353400344,0,0,0,0.0211258617592105,0.0109486252982755
37.6,1.05779029414785,-0.992652844208803,1.05779029414785,0,0,0,3.0738404603755,0.0454793212975365,-3.00373961814593e-12,0.0454793212975365,0,0,0,0.0212395973526251,0.0109903350301116
37.8,1.06125650212434,-0.997549091881847,1.06125650212434,0,0,0,3.080105693188,0.0456167178531025,-2.97905450308278e-12,0.0456167178531025,0,0,0,0.0213532555778142,0.0110318927784168
38,1.06471073699243,-1.00242975106054,1.06471073699243,0,0,0,3.08635790103492,0.0457538287711693,-2.94685109647475e-12,0.0457538287711693,0,0,0,0.021466836781742,0.0110733004307389
38.2,1.0681530811834,-1.00729489027706,1.0681530811834,0,0,0,3.09259725077431,0.0458906577109423,-2.92334906282221e-12,0.0458906577109423,0,0,0,0.0215803413078527,0.0111145598177382
38.4,1.07158361628019,-1.0121445786572,1.07158361628019,0,0,0,3.09882390463073,0.0460272082299972,-2.89058013636101e-12,0.0460272082299972,0,0,0,0.0216937694962387,0.011155672715189
38.6,1.07500242302898,-1.01697888587372,1.07500242302898,0,0,0,3.10503802033301,0.0461634837873337,-2.86174556274332e-12,0.0461634837873337,0,0,0,0.021807121683817,0.0111966408456439
38.8,1.07840958135059,-1.02179788209848,1.07840958135059,0,0,0,3.11123975125769,0.0462994877464997,-2.83694595593076e-12,0.0462994877464997,0,0,0,0.0219203982044884,0.0112374658801322
39,1.08180517035173,-1.02660163795676,1.08180517035173,0,0,0,3.11742924656735,0.0464352233786261,-2.80813913788869e-12,0.0464352233786261,0,0,0,0.0220335993892898,0.0112781494398313
39.2,1.08518926833597,-1.03139022448357,1.08518926833597,0,0,0,3.12360665134464,0.0465706938653781,-2.78036968448525e-12,0.0465706938653781,0,0,0,0.0221467255665377,0.0113186930977024
39.4,1.08856195281461,-1.03616371308132,1.08856195281461,0,0,0,3.12977210672374,0.0467059023018286,-2.75380065972719e-12,0.0467059023018286,0,0,0,0.0222597770619619,0.0113590983800735
39.6,1.09192330051731,-1.0409221754793,1.09192330051731,0,0,0,3.13592575001765,0.0468408516992494,-2.72446648574842e-12,0.0468408516992494,0,0,0,0.0223727541988324,0.0113993667681878
39.8,1.0952733874026,-1.04566568369502,1.0952733874026,0,0,0,3.14206771484118,0.0469755449878195,-2.70460737139544e-12,0.0469755449878195,0,0,0,0.0224856572980787,0.0114394996997159
40,1.09861228866811,-1.05039430999657,1.09861228866811,0,0,0,3.14819813123238,0.0471099850192632,-2.6741595049451e-12,0.0471099850192632,0,0,0,0.0225984866784002,0.0114794985702077
40.2,1.0952733874026,-1.04794378011793,1.0952733874026,0,0,0,3.13491792866275,0.0468187501756695,-1.90684273926323e-13,0.0468187501756695,0,0,0,0.0224926749351237,0.0113226476733828
40.4,1.09192330051731,-1.04544117691673,1.09192330051731,0,0,0,3.12178646882361,0.0465307772614053,-2.07202310864574e-13,0.0465307772614053,0,0,0,0.022386724303066,0.0111682907426779
40.6,1.08856195281461,-1.04288803488654,1.08856195281461,0,0,0,3.10879711224211,0.04624592067158,-2.21062751437628e-13,0.04624592067158,0,0,0,0.0222806278789858,0.0110163268384041
40.8,1.08518926833597,-1.04028578894203,1.08518926833597,0,0,0,3.09594362855272,0.0459640437742796,-2.36758529448267e-13,0.0459640437742796,0,0,0,0.0221743793743049,0.0108666612324595
41,1.08180517035173,-1.03763578214669,1.08180517035173,0,0,0,3.08322016382024,0.0456850181927045,-2.53169013531007e-13,0.0456850181927045,0,0,0,0.0220679730528704,0.0107192049186981
41.2,1.07840958135059,-1.03493927270889,1.07840958135059,0,0,0,3.07062121100928,0.0454087231575679,-2.689619360563e-13,0.0454087231575679,0,0,0,0.0219614036757592,0.0105738741714832
41.4,1.07500242302898,-1.03219744032892,1.07500242302898,0,0,0,3.05814158324087,0.0451350449206137,-2.82808498841547e-13,0.0451350449206137,0,0,0,0.0218546664522432,0.0104305901453268
41.6,1.07158361628019,-1.02941139196314,1.07158361628019,0,0,0,3.04577638954268,0.044863876222821,-3.00183489176931e-13,0.044863876222821,0,0,0,0.0217477569961382,0.0102892785113626
41.8,1.0681530811834,-1.02658216705308,1.0681530811834,0,0,0,3.03352101286489,0.0445951158122857,-3.17256637627494e-13,0.0445951158122857,0,0,0,0.0216406712868212,0.010149869127381
42,1.06471073699243,-1.02371074229015,1.06471073699243,0,0,0,3.02137109007552,0.044328668005522,-3.31699945288477e-13,0.044328668005522,0,0,0,0.0215334056344027,0.0100122957371814
42.2,1.06125650212434,-1.02079803596032,1.06125650212434,0,0,0,3.00932249373774,0.044064442287843,-3.48592682497539e-13,0.044064442287843,0,0,0,0.0214259566485486,0.00987649569635003
42.4,1.05779029414785,-1.01784491191171,1.05779029414785,0,0,0,2.99737131548457,0.0438023529487588,-3.64513974560055e-13,0.0438023529487588,0,0,0,0.0213183212105214,0.00974240972173582
42.6,1.05431202977153,-1.01485218318336,1.05431202977153,0,0,0,2.98551385082586,0.0435423187488021,-3.81781412039928e-13,0.0435423187488021,0,0,0,0.0212104964480746,0.00960998166223575
42.8,1.05082162483176,-1.01182061532844,1.05082162483176,0,0,0,2.973746585245,0.043284262614622,-3.9833761289465e-13,0.043284262614622,0,0,0,0.0211024797128732,0.00947915828875079
43,1.04731899428056,-1.00875092946208,1.04731899428056,0,0,0,2.96206618145601,0.0430281113595375,-4.14335232790108e-13,0.0430281113595375,0,0,0,0.020994268560159,0.00934988910143997
43.2,1.04380405217311,-1.00564380506003,1.04380405217311,0,0,0,2.95046946770864,0.0427737954270669,-4.32577584863481e-13,0.0427737954270669,0,0,0,0.0208858607304129,0.00922212615259541
43.4,1.04027671165515,-1.00249988253175,1.04027671165515,0,0,0,2.93895342704045,0.0425212486552215,-4.48974191158413e-13,0.0425212486552215,0,0,0,0.0207772541327977,0.00909582388364986
43.6,1.03673688495002,-0.999319765589327,1.03673688495002,0,0,0,2.92751518738532,0.0422704080595925,-4.64878135986169e-13,0.0422704080595925,0,0,0,0.0206684468301904,0.00897093897500046
43.8,1.03318448334565,-0.996104023430583,1.03318448334565,0,0,0,2.91615201245944,0.0420212136334768,-4.82322515260591e-13,0.0420212136334768,0,0,0,0.0205594370256364,0.00884743020745575
44,1.02961941718116,-0.992853192753493,1.02961941718116,0,0,0,2.90486129335243,0.0417736081634697,-5.01671620911637e-13,0.0417736081634697,0,0,0,0.0204502230500779,0.00872525833425357
44.2,1.02604159583327,-0.989567779616944,1.02604159583327,0,0,0,2.89364054075965,0.041527537059118,-5.17894754858972e-13,0.041527537059118,0,0,0,0.020340803351225,0.00860438596270221
44.4,1.02245092770255,-0.986248261161663,1.02245092770255,0,0,0,2.88248737779752,0.0412829481953674,-5.35762406661533e-13,0.0412829481953674,0,0,0,0.0202311764834567,0.00848477744460001
44.6,1.01884732019925,-0.982895087203019,1.01884732019925,0,0,0,2.87139953335165,0.0410397917666771,-5.50854500902531e-13,0.0410397917666771,0,0,0,0.0201213410986464,0.00836639877465799
44.8,1.01523067972906,-0.979508681707495,1.01523067972906,0,0,0,2.86037483590908,0.0407980201517705,-5.68798480538035e-13,0.0407980201517705,0,0,0,0.020011295937824,0.00824921749625685
45,1.01160091167848,-0.976089444162037,1.01160091167848,0,0,0,2.8494112078347,0.0405575877881082,-5.86326126539305e-13,0.0405575877881082,0,0,0,0.0199010398235923,0.00813320261390158
45.2,1.00795792039998,-0.972637750846068,1.00795792039998,0,0,0,2.83850666005202,0.0403184510552429,-6.04006428206461e-13,0.0403184510552429,0,0,0,0.0197905716532292,0.00801832451183369
45.4,1.00430160919687,-0.969153956013873,1.00430160919687,0,0,0,2.8276592870951,0.0400805681663057,-6.202365010477e-13,0.0400805681663057,0,0,0,0.0196798903924089,0.00790455487828515
45.6,1.00063188030791,-0.965638392995202,1.00063188030791,0,0,0,2.8168672624996,0.0398438990669363,-6.39956837522604e-13,0.0398438990669363,0,0,0,0.0195689950694895,0.00779186663492765
45.8,0.996948634891609,-0.962091375220518,0.996948634891609,0,0,0,2.80612883450566,0.0396084053410382,-6.58098575634369e-13,0.0396084053410382,0,0,0,0.0194578847703132,0.00768023387109581
46,0.993251773010283,-0.958513197177739,0.993251773010283,0,0,0,2.79544232204506,0.039374050122785,-6.73877620371854e-13,0.039374050122785,0,0,0,0.0193465586334788,0.00756963178242505
46.2,0.989541193613748,-0.954904135305773,0.989541193613748,0,0,0,2.78480611099029,0.0391407980143641,-6.94038576609657e-13,0.0391407980143641,0,0,0,0.0192350158460444,0.00746003661355621
46.4,0.985816794522765,-0.951264448830019,0.985816794522765,0,0,0,2.77421865064437,0.0389086150089864,-7.10629471933899e-13,0.0389086150089864,0,0,0,0.0191232556396239,0.00735142560459731
46.6,0.982078472412158,-0.94759438054549,0.982078472412158,0,0,0,2.76367845044925,0.0386774684187161,-7.28323651388862e-13,0.0386774684187161,0,0,0,0.0190112772868521,0.00724377694108156
46.8,0.978326122793608,-0.943894157551121,0.978326122793608,0,0,0,2.75318407689739,0.038447326806733,-7.4643416447806e-13,0.038447326806733,0,0,0,0.0188990800981832,0.00713706970714717
47,0.974559639998131,-0.940163991940212,0.974559639998131,0,0,0,2.74273415062769,0.0382181599236479,-7.65304486449736e-13,0.0382181599236479,0,0,0,0.0187866634190054,0.00703128384172557
47.2,0.970778917158225,-0.936404081450622,0.970778917158225,0,0,0,2.73232734369102,0.0379899386475352,-7.82204162552702e-13,0.0379899386475352,0,0,0,0.0186740266270457,0.00692640009752181
47.4,0.966983846189673,-0.932614610078681,0.966983846189673,0,0,0,2.72196237697034,0.0377626349273602,-8.01352040280534e-13,0.0377626349273602,0,0,0,0.0185611691300489,0.00682240000260315
47.6,0.963174317773006,-0.928795748659963,0.963174317773006,0,0,0,2.71163801774283,0.0375362217295107,-8.20850332150513e-13,0.0375362217295107,0,0,0,0.0184480903637139,0.00671926582441584
47.8,0.959350221334602,-0.924947655420714,0.959350221334602,0,0,0,2.70135307737037,0.0373106729871512,-8.37961644517549e-13,0.0373106729871512,0,0,0,0.0183347897898721,0.00661698053608335
48,0.955511445027436,-0.921070476502982,0.955511445027436,0,0,0,2.69110640910675,0.0370859635521397,-8.57248300123459e-13,0.0370859635521397,0,0,0,0.0182212668949001,0.00651552778484094
48.2,0.951657875711446,-0.917164346466272,0.951657875711446,0,0,0,2.68089690601142,0.0368620691492684,-8.75965966429249e-13,0.0368620691492684,0,0,0,0.0181075211883507,0.00641489186247323
48.4,0.947789398933526,-0.913229389525333,0.947789398933526,0,0,0,2.67072349693816,0.0366389662883009,-8.94138929563582e-13,0.0366389662883009,0,0,0,0.0179935522055964,0.0063150576448958
48.6,0.943905898907129,-0.909265717633251,0.943905898907129,0,0,0,2.66058515100226,0.0364166323619357,-9.11996173025287e-13,0.0364166323619357,0,0,0,0.0178793594949479,0.00621601066970618
48.8,0.940007258491471,-0.905273433441173,0.940007258491471,0,0,0,2.65048086901461,0.0361950454579553,-9.29620963541211e-13,0.0361950454579553,0,0,0,0.0177649426294643,0.00611773700265088
49,0.936093359170335,-0.901252629849832,0.936093359170335,0,0,0,2.64040968410289,0.0359741843728513,-9.49990086596131e-13,0.0359741843728513,0,0,0,0.0176503012019841,0.00602022325382162
49.2,0.932164081030445,-0.897203390439438,0.932164081030445,0,0,0,2.63037066000268,0.0357540285743436,-9.69745117540555e-13,0.0357540285743436,0,0,0,0.0175354348247776,0.00592345655659645
49.4,0.928219302739429,-0.893125789893937,0.928219302739429,0,0,0,2.62036288939633,0.0355345581649561,-9.89125448214168e-13,0.0355345581649561,0,0,0,0.017420343129397,0.00582742454805508
49.6,0.924258901523332,-0.889019894422253,0.924258901523332,0,0,0,2.61038549229186,0.0353157538464644,-1.00788474788338e-12,0.0353157538464644,0,0,0,0.0173050257667235,0.00573211535080055
49.8,0.920282753143693,-0.884885762179642,0.920282753143693,0,0,0,2.60043761443282,0.0350975968850255,-1.02759467601743e-12,0.0350975968850255,0,0,0,0.0171894824072132,0.00563751755614142
50,0.916290731874155,-0.8807234436921,0.916290731874155,0,0,0,2.5905184257312,0.0348800690768086,-1.04684316770687e-12,0.0348800690768086,0,0,0,0.0170737127413453,0.0055436202085866
50.2,0.912282710476616,-0.876532982287116,0.912282710476616,0,0,0,2.58062711871438,0.0346631527139388,-1.0650091919473e-12,0.0346631527139388,0,0,0,0.0169577164802771,0.00545041279161774
50.4,0.908258560176891,-0.87231441453393,0.908258560176891,0,0,0,2.57076290697813,0.0344468305505739,-1.08710609958429e-12,0.0344468305505739,0,0,0,0.0168414933567112,0.00535788521470661
50.6,0.904218150639886,-0.86806777069638,0.904218150639886,0,0,0,2.56092502363787,0.0342310857689314,-1.10586886870045e-12,0.0342310857689314,0,0,0,0.0167250431259799,0.00526602780154643
50.8,0.900161349944271,-0.863793075202615,0.900161349944271,0,0,0,2.55111271976775,0.0340159019450702,-1.126987392297e-12,0.0340159019450702,0,0,0,0.0166083655673585,0.00517483127949026
51,0.896088024556636,-0.859490347134244,0.896088024556636,0,0,0,2.54132526282177,0.0338012630142539,-1.14474055235014e-12,0.0338012630142539,0,0,0,0.0164914604856103,0.00508428677016351
51.2,0.89199803930511,-0.855159600739891,0.89199803930511,0,0,0,2.53156193502533,0.033587153235688,-1.16510620595811e-12,0.033587153235688,0,0,0,0.0163743277127778,0.00499438578125972
51.4,0.887891257352457,-0.850800845976108,0.887891257352457,0,0,0,2.52182203173087,0.0333735571564512,-1.18644677415958e-12,0.0333735571564512,0,0,0,0.0162569671102275,0.00490512019949726
51.6,0.883767540168595,-0.846414089080663,0.883767540168595,0,0,0,2.51210485972679,0.0331604595744118,-1.20659038316262e-12,0.0331604595744118,0,0,0,0.0161393785709612,0.0048164822847501
51.8,0.879626747502564,-0.84199933318228,0.879626747502564,0,0,0,2.50240973549101,0.0329478454999307,-1.22581111927644e-12,0.0329478454999307,0,0,0,0.0160215620222051,0.00472846466535082
52,0.8754687373539,-0.837556578951463,0.8754687373539,0,0,0,2.49273598337987,0.0327357001161442,-1.24708229853887e-12,0.0327357001161442,0,0,0,0.0159035174282904,0.00464106033457386
52.2,0.871293365943419,-0.833085825297199,0.871293365943419,0,0,0,2.48308293374293,0.0325240087376165,-1.26804816646953e-12,0.0325240087376165,0,0,0,0.0157852447938366,0.00455426264831053
52.4,0.867100487683383,-0.828587070114916,0.867100487683383,0,0,0,2.47344992095302,0.0323127567671428,-1.28627664075509e-12,0.0323127567671428,0,0,0,0.0156667441672553,0.00446806532395458
52.6,0.86288995514704,-0.824060311090891,0.86288995514704,0,0,0,2.46383628134196,0.0321019296504841,-1.30968152989297e-12,0.0321019296504841,0,0,0,0.0155480156445858,0.00438246244051574
52.8,0.858661619037519,-0.819505546568165,0.858661619037519,0,0,0,2.45424135103301,0.0318915128288182,-1.32846164624389e-12,0.0318915128288182,0,0,0,0.0154290593736772,0.00429744843997452
53,0.854415328156068,-0.81492277648098,0.854415328156068,0,0,0,2.44466446365661,0.031681491688665,-1.35097835696207e-12,0.031681491688665,0,0,0,0.0153098755587361,0.00421301812992087
53.2,0.85015092936961,-0.810312003362088,0.85015092936961,0,0,0,2.43510494794323,0.0314718515090792,-1.36824579444195e-12,0.0314718515090792,0,0,0,0.0151904644652475,0.00412916668747796
53.4,0.845868267577609,-0.805673233430907,0.845868267577609,0,0,0,2.42556212517847,0.0312625774058594,-1.39110598040837e-12,0.0312625774058594,0,0,0,0.0150708264252929,0.00404588966456446
53.6,0.841567185678219,-0.801006477766989,0.841567185678219,0,0,0,2.41603530651476,0.0310536542725722,-1.40721809205324e-12,0.0310536542725722,0,0,0,0.0149509618432689,0.00396318299449615
53.8,0.837247524533702,-0.796311753577472,0.837247524533702,0,0,0,2.4065237901242,0.0308450667181379,-1.42833661564978e-12,0.0308450667181379,0,0,0,0.0148308712020324,0.00388104299998601
54,0.832909122935104,-0.791589085562825,0.832909122935104,0,0,0,2.39702685818823,0.0306367990007908,-1.44568385040955e-12,0.0306367990007908,0,0,0,0.014710555069472,0.00379946640253874
54.2,0.828551817566148,-0.786838507389743,0.828551817566148,0,0,0,2.38754377370919,0.0304288349581747,-1.46433906667021e-12,0.0304288349581747,0,0,0,0.0145900141055295,0.00371845033329661
54.4,0.824175442966349,-0.782060063276174,0.824175442966349,0,0,0,2.37807377713895,0.0302211579333992,-1.48401430033474e-12,0.0302211579333992,0,0,0,0.0144692490696711,0.00363799234533858
54.6,0.819779831493312,-0.77725380969601,0.819779831493312,0,0,0,2.36861608281391,0.0300137506968599,-1.50149684352563e-12,0.0300137506968599,0,0,0,0.0143482608288221,0.00355809042746762
54.8,0.815364813284195,-0.772419817209735,0.815364813284195,0,0,0,2.35916987518941,0.0298065953636647,-1.52176535261894e-12,0.0298065953636647,0,0,0,0.0142270503657704,0.00347874301950106
55,0.810930216216329,-0.767558172426627,0.810930216216329,0,0,0,2.34973430486852,0.029599673306536,-1.53858176199506e-12,0.029599673306536,0,0,0,0.0141056187880378,0.00339994902906981
55.2,0.806475865866948,-0.762668980105231,0.806475865866948,0,0,0,2.3403084844183,0.0293929650640717,-1.55690044190138e-12,0.0293929650640717,0,0,0,0.0139839673372242,0.00332170784994337
55.4,0.802001585472027,-0.757752365396189,0.802001585472027,0,0,0,2.33089148397306,0.029186450244315,-1.57163518310632e-12,0.029186450244315,0,0,0,0.0138620973988159,0.00324401938186308
55.6,0.797507195884188,-0.752808476233036,0.797507195884188,0,0,0,2.32148232662126,0.0289801074235967,-1.58493704272011e-12,0.0289801074235967,0,0,0,0.0137400105124543,0.00316688405188383
55.8,0.792992515529661,-0.747837485873809,0.792992515529661,0,0,0,2.31207998357937,0.0287739140406961,-1.60122609615954e-12,0.0287739140406961,0,0,0,0.0136177083826492,0.00309030283718881
56,0.78845736036427,-0.742839595596238,0.78845736036427,0,0,0,2.30268336915671,0.0285678462864137,-1.61420529720679e-12,0.0285678462864137,0,0,0,0.0134951928899205,0.00301427728934076
56.2,0.783901543828409,-0.737815037548396,0.783901543828409,0,0,0,2.29329133551763,0.0283618789887168,-1.63042496170718e-12,0.0283618789887168,0,0,0,0.0133724661023483,0.00293880955992181
56.4,0.779324876800998,-0.732764077753367,0.779324876800998,0,0,0,2.28390266725529,0.028155985493728,-1.63899796512545e-12,0.028155985493728,0,0,0,0.0132495302874971,0.00286390242747499
56.6,0.774727167552368,-0.727687019267544,0.774727167552368,0,0,0,2.274516075789,0.0279501375428778,-1.65018693154551e-12,0.0279501375428778,0,0,0,0.0131263879246879,0.00278955932567386
56.8,0.770108221696074,-0.722584205486464,0.770108221696074,0,0,0,2.26513019361027,0.027744305146701,-1.65578314947901e-12,0.027744305146701,0,0,0,0.0130030417175682,0.00271578437258252
57,0.765467842139571,-0.717456023593879,0.765467842139571,0,0,0,2.25574356839851,0.027538456455814,-1.66952562885569e-12,0.027538456455814,0,0,0,0.0128794946069434,0.00264258240089098
57.2,0.76080582903376,-0.712302908142525,0.76080582903376,0,0,0,2.24635465704354,0.0273325576298002,-1.67072605750107e-12,0.0273325576298002,0,0,0,0.0127557497838045,0.0025699589889336
57.4,0.756121979721334,-0.707125344757671,0.756121979721334,0,0,0,2.23696181960579,0.0271265727047954,-1.68094357877457e-12,0.0271265727047954,0,0,0,0.0126318107025095,0.00249792049233059
57.6,0.751416088683921,-0.701923873944025,0.751416088683921,0,0,0,2.22756331326813,0.026920463460809,-1.67781066817696e-12,0.026920463460809,0,0,0,0.0125076810940328,0.00242647407598476
57.8,0.746687947487975,-0.696699094981792,0.746687947487975,0,0,0,2.21815728632095,0.0267141892898604,-1.68366015573795e-12,0.0267141892898604,0,0,0,0.0123833649792366,0.00235562774622767
58,0.741937344729377,-0.691451669884398,0.741937344729377,0,0,0,2.20874177225059,0.0265077070662977,-1.68439914793872e-12,0.0265077070662977,0,0,0,0.0122588666820677,0.00228539038277687
58.2,0.73716406597672,-0.686182327395343,0.73716406597672,0,0,0,2.19931468398905,0.0263009710207202,-1.68054112292815e-12,0.0263009710207202,0,0,0,0.0121341908426226,0.00221577177022723
58.4,0.732367893713227,-0.680897396391187,0.732367893713227,0,0,0,2.18986169975009,0.0260938602054881,-3.86259937375233e-07,0.0260938602054881,0,0,0,0.0120093682723127,0.00214683506254498
58.6,0.727548607277278,-0.675586730554877,0.727548607277278,0,0,0,2.18040466124598,0.0258864677653161,-3.87088383266981e-07,0.0258864677653161,0,0,0,0.0118843526555611,0.00207848648428903
58.8,0.72270598280149,-0.670256747242866,0.72270598280149,0,0,0,2.17092906908301,0.0256786675294289,-3.86088877184915e-07,0.0256786675294289,0,0,0,0.0117591753157606,0.00201079148730794
59,0.717839793150317,-0.664908504704063,0.717839793150317,0,0,0,2.16143225202385,0.0254704017253768,-3.84876987571947e-07,0.0254704017253768,0,0,0,0.0116338423910321,0.00194376398801529
59.2,0.712949807856125,-0.659543123957251,0.712949807856125,0,0,0,2.15191144585019,0.0252616097290888,-3.83443188350235e-07,0.0252616097290888,0,0,0,0.0115083602875069,0.00187741872391997
59.4,0.708035793053696,-0.654161815577941,0.708035793053696,0,0,0,2.14236373927566,0.025052227694785,-3.81784939464808e-07,0.025052227694785,0,0,0,0.0113827357992158,0.0018117714952654
59.6,0.703097511413114,-0.648765882690952,0.703097511413114,0,0,0,2.13278607220664,0.0248421885112714,-3.79895559735749e-07,0.0248421885112714,0,0,0,0.0112569761174516,0.00174683918021679
59.8,0.698134722070984,-0.643356723844404,0.698134722070984,0,0,0,2.12317523450641,0.0246314217763776,-3.77767303997439e-07,0.0246314217763776,0,0,0,0.0111310888404779,0.0016826397479142
60,0.693147180559945,-0.637935835607844,0.693147180559945,0,0,0,2.11352786559769,0.0244198537933557,-3.75401596711122e-07,0.0244198537933557,0,0,0,0.0110050819831123,0.00161919226786561
60.2,0.688134638736401,-0.632504814355,0.688134638736401,0,0,0,2.10384045603121,0.0242074075977761,-3.72794023449641e-07,0.0242074075977761,0,0,0,0.0108789639840477,0.00155651691127121
60.4,0.683096844706444,-0.627065357928416,0.683096844706444,0,0,0,2.09410934951669,0.0239940030075841,-3.69945366163887e-07,0.0239940030075841,0,0,0,0.0107527437143935,0.00149463495017138
60.6,0.678033542749897,-0.621619266485874,0.678033542749897,0,0,0,2.08433074687918,0.0237795567066322,-3.66855143627692e-07,0.0237795567066322,0,0,0,0.0106264304846108,0.00143356874867474
60.8,0.672944473242426,-0.616168442922655,0.672944473242426,0,0,0,2.07450071107941,0.0235639823578911,-3.63527839108979e-07,0.0235639823578911,0,0,0,0.0105000340519756,0.00137334174956904
61,0.667829372575655,-0.610714892421481,0.667829372575655,0,0,0,2.06461517420608,0.0233471907528736,-3.59965068643178e-07,0.0233471907528736,0,0,0,0.0103735646269338,0.00131397845291482
61.2,0.662687973075237,-0.605260722434025,0.662687973075237,0,0,0,2.05466994371198,0.0231290899527987,-3.56174389865363e-07,0.0231290899527987,0,0,0,0.0102470328844672,0.00125550436932574
61.4,0.657520002916794,-0.599808138864918,0.657520002916794,0,0,0,2.0446607165823,0.0229095855944358,-3.52159572142297e-07,0.0229095855944358,0,0,0,0.0101204499622042,0.00119794603105875
61.6,0.65232518603969,-0.594359443968687,0.65232518603969,0,0,0,2.0345830899668,0.0226885811298611,-3.4793377808387e-07,0.0226885811298611,0,0,0,0.00999382746998775,0.00114133094473157
61.8,0.647103242058539,-0.588917034510864,0.647103242058539,0,0,0,2.02443257133654,0.0224659780408982,-3.43502975865689e-07,0.0224659780408982,0,0,0,0.00986717750464832,0.00108568750343238
62,0.641853886172395,-0.583483397016911,0.641853886172395,0,0,0,2.01420459458875,0.0222416762003333,-3.3888200408165e-07,0.0222416762003333,0,0,0,0.00974051265642761,0.00103104495753247
62.2,0.636576829071551,-0.578061102753884,0.636576829071551,0,0,0,2.00389453659705,0.0220155742281557,-3.34081164971717e-07,0.0220155742281557,0,0,0,0.00961384601894204,0.000977433354240096
62.4,0.631271776841858,-0.57265280233206,0.631271776841858,0,0,0,1.99349773441322,0.0217875698730094,-3.29114654848417e-07,0.0217875698730094,0,0,0,0.00948719120234851,0.000924883474022593
62.6,0.625938430866495,-0.567261219472519,0.625938430866495,0,0,0,1.98300950399211,0.0215575604214977,-3.23997901320594e-07,0.0215575604214977,0,0,0,0.00936056234787206,0.000873426761141216
62.8,0.62057648772511,-0.561889144200534,0.62057648772511,0,0,0,1.97242515986183,0.0213254431290111,-3.18746482184246e-07,0.0213254431290111,0,0,0,0.00923397414489586,0.000823095250357172
63,0.615185639090233,-0.55653942554101,0.615185639090233,0,0,0,1.96174003553984,0.021091115667503,-3.13376228449486e-07,0.021091115667503,0,0,0,0.00910744185093916,0.000773921490592526
63.2,0.609765571620894,-0.551214963774342,0.609765571620894,0,0,0,1.95094950453292,0.0208544765854188,-3.07902023925777e-07,0.0208544765854188,0,0,0,0.00898098131469691,0.000725938466245394
63.4,0.60431596685333,-0.545918702424193,0.60431596685333,0,0,0,1.94004900154087,0.0206154257734088,-3.02339235159696e-07,0.0206154257734088,0,0,0,0.00885460900272705,0.000679179517500178
63.6,0.598836501088704,-0.54065362004399,0.598836501088704,0,0,0,1.92903404369716,0.0203738649303902,-2.96704222961519e-07,0.0203738649303902,0,0,0,0.00872834202984837,0.000633678260343077
63.8,0.593326845277734,-0.535422721901552,0.593326845277734,0,0,0,1.91790025161941,0.0201296980239819,-2.91011936489477e-07,0.0201296980239819,0,0,0,0.00860219819338666,0.000589468507201651
64,0.587786664902119,-0.530229031796799,0.587786664902119,0,0,0,1.90664336979019,0.0198828317379108,-2.8527682391713e-07,0.0198828317379108,0,0,0,0.00847619601193121,0.00054658418976999
64.2,0.582215619852664,-0.525075584008912,0.582215619852664,0,0,0,1.89525928625904,0.0196331759015748,-2.79507828120432e-07,0.0196331759015748,0,0,0,0.00835035476819205,0.000505059284310299
64.4,0.576613364303994,-0.519965415830415,0.576613364303994,0,0,0,1.88374405078594,0.0193806438925233,-2.73717575183588e-07,0.0193806438925233,0,0,0,0.00822469455750696,0.000464927741868208
64.6,0.570979546585738,-0.514901560361474,0.570979546585738,0,0,0,1.87209389205516,0.0191251530108298,-2.6791612019704e-07,0.0191251530108298,0,0,0,0.00809923634015429,0.000426223422035608
64.8,0.56531380905006,-0.509887039970413,0.56531380905006,0,0,0,1.86030523319479,0.0188666248172956,-2.6210666774322e-07,0.0188666248172956,0,0,0,0.00797400199878406,0.000388980032398437
65,0.559615787935423,-0.5049248607614,0.559615787935423,0,0,0,1.84837470499555,0.0186049854290167,-2.56296928636754e-07,0.0186049854290167,0,0,0,0.00784901440204938,0.000353231075067444
65.2,0.553885113226438,-0.500018007592265,0.553885113226438,0,0,0,1.83629915772173,0.0183401657738114,-2.50489947900209e-07,0.0183401657738114,0,0,0,0.00772429747208575,0.000319009798369969
65.4,0.548121408509687,-0.495169440190929,0.548121408509687,0,0,0,1.82407567053117,0.0180721017961675,-2.44682837689109e-07,0.0180721017961675,0,0,0,0.00759987625791764,0.000286349155961576
65.6,0.542324290825362,-0.490382090500889,0.542324290825362,0,0,0,1.81170155833444,0.0178007346123671,-2.38876185793685e-07,0.0178007346123671,0,0,0,0.00747577701516955,0.000255281773481005
65.8,0.536493370514568,-0.485658860867873,0.536493370514568,0,0,0,1.79917437687259,0.0175260106174241,-2.33065216525413e-07,0.0175260106174241,0,0,0,0.00735202729024738,0.000225839921092159
66,0.53062825106217,-0.481002623621353,0.53062825106217,0,0,0,1.78649192507694,0.0172478815390906,-2.27244306469365e-07,0.0172478815390906,0,0,0,0.00722865601143648,0.0001980554935345
66.2,0.524728528934982,-0.47641622182611,0.524728528934982,0,0,0,1.77365224521497,0.0169663044416918,-2.21408254813538e-07,0.0169663044416918,0,0,0,0.0071056935860597,0.000171959996348354
66.4,0.518793793415167,-0.47190247110776,0.518793793415167,0,0,0,1.76065362108305,0.0166812416817732,-2.15542843831976e-07,0.0166812416817732,0,0,0,0.00698317200350467,0.00014758453755408
66.6,0.512823626428664,-0.467464163125628,0.512823626428664,0,0,0,1.74749457333219,0.0163926608132938,-2.09640237960884e-07,0.0163926608132938,0,0,0,0.00686112494716976,0.000124959825693174
66.8,0.506817602368452,-0.463104069875397,0.506817602368452,0,0,0,1.7341738534913,0.0161005344509564,-2.03687784361417e-07,0.0161005344509564,0,0,0,0.00673958791216198,0.00010411617126167
67,0.500775287912489,-0.458824949500696,0.500775287912489,0,0,0,1.72069043559703,0.0158048400894095,-1.9767353298325e-07,0.0158048400894095,0,0,0,0.00661859833259871,8.50834926214403e-05
67.2,0.494696241836107,-0.454629553229932,0.494696241836107,0,0,0,1.70704350623178,0.0155055598840864,-1.91584846863727e-07,0.0155055598840864,0,0,0,0.00649819571765752,6.78913245459272e-05
67.4,0.488580014818671,-0.450520633546715,0.488580014818671,0,0,0,1.6932324529035,0.0152026803956239,-1.85406900459276e-07,0.0152026803956239,0,0,0,0.00637842179795347,5.2568828869098e-05
67.6,0.482426149244293,-0.446500953710834,0.482426149244293,0,0,0,1.67925685070396,0.0148961922993065,-1.79126737180971e-07,0.0148961922993065,0,0,0,0.00625932068410431,3.91448065660933e-05
67.8,0.476234178996372,-0.442573298553568,0.476234178996372,0,0,0,1.66511644752316,0.0145860900605431,-1.72732720422203e-07,0.0145860900605431,0,0,0,0.0061409390386315,2.76477103069356e-05
68,0.470003629245735,-0.438740486824266,0.470003629245735,0,0,0,1.65081114751186,0.0142723715716603,-1.6621345016489e-07,0.0142723715716603,0,0,0,0.0060233262643415,1.81056572632822e-05
68.2,0.46373401623214,-0.435005385628922,0.46373401623214,0,0,0,1.63634099209087,0.0139550377357642,-1.59558422696549e-07,0.0139550377357642,0,0,0,0.00590653471412572,1.05464423738231e-05
68.4,0.457424847038875,-0.431370928197887,0.457424847038875,0,0,0,1.62170613674605,0.0136340919579349,-1.52758187902877e-07,0.0136340919579349,0,0,0,0.00579061993148694,4.99755335955371e-06
68.6,0.451075619360217,-0.42784013884108,0.451075619360217,0,0,0,1.60690681779193,0.0133095394164818,-1.45804609549133e-07,0.0133095394164818,0,0,0,0.00567564094659998,1.48619185831032e-06
68.8,0.444685821261446,-0.424416183992461,0.444685821261446,0,0,0,1.59194327981476,0.0129813854707179,-1.38688760326772e-07,0.0129813854707179,0,0,0,0.00556166073934091,3.93160091218157e-08
69,0.438254930931155,-0.421102306158272,0.438254930931155,0,0,0,1.57681589240709,0.0126496382316844,-1.31422393941441e-07,0.0126496382316844,0,0,0,0.00544874608596578,6.83726610304363e-07
69.2,0.431782416425538,-0.417901247640562,0.431782416425538,0,0,0,1.56152605770107,0.0123143284726468,-1.24054524760359e-07,0.0123143284726468,0,0,0,0.00533696445381984,3.44559467110612e-06
69.4,0.425267735404344,-0.414815865108099,0.425267735404344,0,0,0,1.54607522328766,0.0119754879387618,-1.16584126632138e-07,0.0119754879387618,0,0,0,0.0052263874753847,8.34994392115269e-06
69.6,0.418710334858185,-0.411849169770675,0.418710334858185,0,0,0,1.53046483034418,0.0116331482379002,-1.09016904615601e-07,0.0116331482379002,0,0,0,0.0051170913998844,1.54207029707013e-05
69.8,0.412109650826833,-0.409004309424317,0.412109650826833,0,0,0,1.51469635363452,0.0112873417185241,-1.0136663813453e-07,0.0112873417185241,0,0,0,0.0050091572347634,2.46807000279233e-05
70,0.405465108108164,-0.406284568930579,0.405465108108164,0,0,0,1.49877131226587,0.010938101705041,-9.36541011166414e-08,0.010938101705041,0,0,0,0.00490267100579217,3.61516201273908e-05
70.2,0.398776119957368,-0.403693375016185,0.398776119957368,0,0,0,1.48269127412372,0.0105854625922008,-8.59013354892468e-08,0.0105854625922008,0,0,0,0.00479772406253538,4.98539414783933e-05
70.4,0.392042087776023,-0.401234302460666,0.392042087776023,0,0,0,1.46645785875704,0.0102294599127007,-7.81403178464618e-08,0.0102294599127007,0,0,0,0.00469441341556793,6.5806856062585e-05
70.6,0.385262400790645,-0.398911079926736,0.385262400790645,0,0,0,1.45007274139653,0.00987013042112966,-7.04046074478243e-08,0.00987013042112966,0,0,0,0.00459284209710166,8.40281778881964e-05
70.8,0.378436435720245,-0.396727595316097,0.378436435720245,0,0,0,1.43353765822872,0.00950751221337214,-6.27368327730735e-08,0.00950751221337214,0,0,0,0.00449311954601641,0.000104534240078006
71,0.371563556432483,-0.394687899815887,0.371563556432483,0,0,0,1.41685441404597,0.0091416448926171,-5.51851777582171e-08,0.0091416448926171,0,0,0,0.00439536201329823,0.000127339783036387
71.2,0.364643113587909,-0.392796210538817,0.364643113587909,0,0,0,1.40002489224339,0.00877256978765829,-4.78015212777155e-08,0.00877256978765829,0,0,0,0.00429969298817199,0.000152457835043014
71.4,0.357674444271816,-0.391056911627536,0.357674444271816,0,0,0,1.3830510671577,0.00840033022685356,-4.06481705343686e-08,0.00840033022685356,0,0,0,0.00420624364485069,0.000179899586621921
71.6,0.350656871613169,-0.389474553290732,0.350656871613169,0,0,0,1.36593501926867,0.00802497186877461,-3.37924252824875e-08,0.00802497186877461,0,0,0,0.00411515330661939,0.000209674261378496
71.8,0.343589704390077,-0.38805384891521,0.343589704390077,0,0,0,1.34867895278937,0.00764654308908007,-2.73088183507658e-08,0.00764654308908007,0,0,0,0.00402656992832496,0.00024178898464605
72,0.336472236621213,-0.386799669948476,0.336472236621213,0,0,0,1.33128521578021,0.00726509542152226,-2.1278924623204e-08,0.00726509542152226,0,0,0,0.00394065059489457,0.000276248652621979
72.2,0.3293037471426,-0.385717038491395,0.3293037471426,0,0,0,1.31375632254847,0.00688068404961707,-1.57922582068662e-08,0.00688068404961707,0,0,0,0.00385756203485814,0.000313055804354094
72.4,0.322083499169113,-0.384811117467309,0.322083499169113,0,0,0,1.29609497817142,0.00649336834393711,-1.09452757942122e-08,0.00649336834393711,0,0,0,0.00377748114693448,0.000352210499450838
72.6,0.314810739840034,-0.384087198363028,0.314810739840034,0,0,0,1.27830410478793,0.0061032124387723,-6.8415458472082e-09,0.0061032124387723,0,0,0,0.0037005955383504,0.000393710204234099
72.8,0.307484699747961,-0.383550686512996,0.307484699747961,0,0,0,1.26038686932448,0.00571028584046144,-3.59235126931937e-09,0.00571028584046144,0,0,0,0.0036271040730269,0.000437549689372517
73,0.300104592450338,-0.383207083917901,0.300104592450338,0,0,0,1.24234671228407,0.00531466405827292,-1.31576672170522e-09,0.00531466405827292,0,0,0,0.00355721742753014,0.000483720942243489
73.2,0.29266961396282,-0.383109364638375,0.29266961396282,0,0,0,1.2241293581724,0.00491666922645709,-3.02480347266331e-06,0.00491666922645709,0,0,0,0.00349159339249819,0.00053196912145088
73.4,0.285178942233662,-0.383109364638375,0.285178942233662,0,0,0,1.20592694457071,0.00451560623065954,7.43327552074537e-07,0.00451560623065954,0,0,0,0.0034290542924929,0.000583075244824944
73.6,0.27763173659828,-0.383389775587782,0.27763173659828,0,0,0,1.18752783613626,0.00411248625149268,-1.61004889021737e-09,0.00411248625149268,0,0,0,0.00337148220130196,0.000636102112524374
73.8,0.27002713721306,-0.383874032821604,0.27002713721306,0,0,0,1.1690368931871,0.00370698134048746,-4.54578849952772e-09,0.00370698134048746,0,0,0,0.00331837761188853,0.000691462657556469
74,0.262364264467491,-0.384579399339187,0.262364264467491,0,0,0,1.15044535151538,0.00329927113263904,-9.14781372093193e-09,0.00329927113263904,0,0,0,0.00327012821193701,0.000749071506447982
74.2,0.254642218373581,-0.385511473486975,0.254642218373581,0,0,0,1.13175889097946,0.00288948026603245,-1.55737056848661e-08,0.00288948026603245,0,0,0,0.00322702746016357,0.00080890331517685
74.4,0.246860077931525,-0.386675772614896,0.246860077931525,0,0,0,1.11298365121271,0.0024777434643629,-2.39865364075071e-08,0.0024777434643629,0,0,0,0.0031893846061742,0.000870930007903069
74.6,0.2390169004705,-0.388077702332039,0.2390169004705,0,0,0,1.09412624898652,0.00206420591842183,-3.45562949036898e-08,0.00206420591842183,0,0,0,0.00315752525883658,0.000935120910893256
74.8,0.231111720963387,-0.389722525321961,0.231111720963387,0,0,0,1.07519379161751,0.00164902357850741,-4.74566709865974e-08,0.00164902357850741,0,0,0,0.00313179195370849,0.00100144292434122
75,0.22314355131421,-0.391615330259009,0.22314355131421,0,0,0,1.05619388575904,0.00123236334828218,-6.28671730526584e-08,0.00123236334828218,0,0,0,0.00311254472252311,0.00106986073195893
75.2,0.215111379616945,-0.393761001110771,0.215111379616945,0,0,0,1.03713464128411,0.000814403169965036,-8.09732092190091e-08,0.000814403169965036,0,0,0,0.00310016166559435,0.0011403370494904
75.4,0.207014169384326,-0.396164187248685,0.207014169384326,0,0,0,1.0180246698916,0.000395331993492719,-1.01965539799878e-07,0.000395331993492719,0,0,0,0.0030950395301473,0.00121283291195359
75.6,0.198850858745165,-0.398829274756274,0.198850858745165,0,0,0,0.998873078187891,-2.46503759309474e-05,-1.26038817181066e-07,-2.46503759309474e-05,0,0,0,0.00309759429808691,0.00128730799909128
75.8,0.19062035960865,-0.401760359408038,0.19062035960865,0,0,0,0.979689454997805,-0.000445333554056141,-1.53395683998231e-07,-0.000445333554056141,0,0,0,0.00310826178883231,0.0013637209971642
76,0.182321556793955,-0.404961221490501,0.182321556793955,0,0,0,0.960483853046256,-0.000866496980712306,-1.84243966603833e-07,-0.000866496980712306,0,0,0,0.00312749828014354,0.00144202999709387
76.2,0.173953307123438,-0.408435332164403,0.173953307123438,0,0,0,0.941266737409725,-0.00128791104615035,-2.18804908746497e-07,-0.00128791104615035,0,0,0,0.00315578157100359,0.00152219318635905
76.4,0.165514438477573,-0.412185775097534,0.165514438477573,0,0,0,0.922049012317739,-0.00170933651618497,-2.57287374044951e-07,-0.00170933651618497,0,0,0,0.00319361087406089,0.001604168807687
76.6,0.157003748809665,-0.416215228743177,0.157003748809665,0,0,0,0.902841983807757,-0.00213052533214755,-2.99925896660603e-07,-0.00213052533214755,0,0,0,0.00324150746786445,0.00168791561990713
76.8,0.148420005118273,-0.420526009913566,0.148420005118273,0,0,0,0.88365726599161,-0.00255122267577127,-3.4696206541499e-07,-0.00255122267577127,0,0,0,0.00330001630232188,0.00177339394537263
77,0.139761942375159,-0.425120033450795,0.139761942375159,0,0,0,0.86450676487583,-0.0029711673271218,-3.98638302472054e-07,-0.0029711673271218,0,0,0,0.00336970642365086,0.00186056595418359
77.2,0.131028262406404,-0.429998804524483,0.131028262406404,0,0,0,0.845402630159964,-0.00339009271105286,-4.55219078264544e-07,-0.00339009271105286,0,0,0,0.00345117187336755,0.00194939622039824
77.4,0.122217632724249,-0.435163413735043,0.122217632724249,0,0,0,0.826357204240575,-0.00380772802522397,-5.16971560446128e-07,-0.00380772802522397,0,0,0,0.00354503265813569,0.00203985230042593
77.6,0.113328685307003,-0.440614536063812,0.113328685307003,0,0,0,0.807382968168276,-0.00422379941797853,-5.84180182366511e-07,-0.00422379941797853,0,0,0,0.00365193581850583,0.00213190531953824
77.8,0.104360015324243,-0.446352432928734,0.104360015324243,0,0,0,0.788492485866404,-0.00463803121367273,-6.57142554032208e-07,-0.00463803121367273,0,0,0,0.00377255659787257,0.00222553057114031
78,0.0953101798043247,-0.452376957600661,0.0953101798043247,0,0,0,0.769698347032428,-0.00505014716448614,-7.36170185431165e-07,-0.00505014716448614,0,0,0,0.00390759973032601,0.00232070812245413
78.2,0.0861776962410522,-0.458687563961738,0.0861776962410522,0,0,0,0.751013109373932,-0.00545987171072018,-8.21601419005117e-07,-0.00545987171072018,0,0,0,0.00405780086378807,0.00241742342265749
78.4,0.076961041136128,-0.465283317915385,0.076961041136128,0,0,0,0.73244924130175,-0.00586693124693161,-9.13782641990234e-07,-0.00586693124693161,0,0,0,0.00422392812317445,0.00251566791828087
78.6,0.0676586484738151,-0.472162912064351,0.0676586484738151,0,0,0,0.714019065143977,-0.00627105536158539,-1.01307961438476e-06,-0.00627105536158539,0,0,0,0.00440678384454315,0.00261543966396702
78.8,0.0582689081239758,-0.479324683177557,0.0582689081239758,0,0,0,0.695734701771266,-0.00667197804089647,-1.11989851932486e-06,-0.00667197804089647,0,0,0,0.00460720649308987,0.00271674393008199
79,0.0487901641694318,-0.486766631459753,0.0487901641694318,0,0,0,0.677608017765293,-0.00706943884482375,-1.23465116673438e-06,-0.00706943884482375,0,0,0,0.00482607276643981,0.00281959381738623
79.2,0.0392207131532811,-0.494486442831903,0.0392207131532811,0,0,0,0.659650574639183,-0.00746318400581205,-1.35778470134167e-06,-0.00746318400581205,0,0,0,0.00506429993300665,0.00292401085798126
79.4,0.029558802241544,-0.502481512814851,0.029558802241544,0,0,0,0.641873581436989,-0.00785296746912971,-1.48977991420388e-06,-0.00785296746912971,0,0,0,0.00532284840216899,0.00303002561867742
79.6,0.0198026272961799,-0.510748933632124,0.0198026272961799,0,0,0,0.624287874884908,-0.00823855134424433,-1.63111905929388e-06,-0.00823855134424433,0,0,0,0.00560272358159733,0.00313767787653279
79.8,0.00995033085316809,-0.519285597240158,0.00995033085316809,0,0,0,0.606903829919173,-0.0086197078085084,-1.7824027282471e-06,-0.0086197078085084,0,0,0,0.00590498080722009,0.00324701802018901
80,0,-0.528088224794372,0,0,0,0,0.589731326392656,-0.0089962199201721,-1.94418407390221e-06,-0.0089962199201721,0,0,0,0.00623072896921293,0.0033581077463715
