t,LE11,LE22,LE33,LE12,LE13,LE23,J,S11,S22,S33,S12,S13,S23,psiE,psiNE
0,0,0,0,0,0,0,1,0,0,0,0,0,0,0,0
0.2,-0.00497377044130822,-0.00497377044130153,0.00995033085316809,0,0,0,1.00000278997445,1.64573758267006e-14,1.70024584689177e-14,0.00122368279389303,0,0,0,2.17865203873882e-06,3.8960031576351e-06
0.4,-0.00989852575175429,-0.00989852575175441,0.0198026272961797,0,0,0,1.00000557580822,3.54002851338242e-15,3.53677590686496e-15,0.00244554948344609,0,0,0,8.65748910218351e-06,1.5454026733311e-05
0.6,-0.0147752232792281,-0.0147752232792277,0.0295588022415444,0,0,0,1.000008355718,-1.12427428478057e-14,-1.10122414659353e-14,0.00366481791373025,0,0,0,1.93528456523888e-05,3.44716799871493e-05
0.8,-0.0196047925484958,-0.0196047925484982,0.0392207131532813,0,0,0,1.0000111281182,2.58597396968208e-14,2.58627754629037e-14,0.00488079264443019,0,0,0,3.41836483811416e-05,6.07392282325581e-05
1,-0.0243881363367678,-0.0243881363367698,0.048790164169432,0,0,0,1.00001389159238,1.29635885359747e-14,1.30837181366861e-14,0.00609285241860639,0,0,0,5.30713082840366e-05,9.4041651127391e-05
1.2,-0.0291261316854954,-0.0291261316854922,0.0582689081239758,0,0,0,1.00001664489151,-1.23234755733392e-14,-1.21955397169859e-14,0.0073004494175709,0,0,0,7.59396204063067e-05,0.000134160192430025
1.4,-0.0338196308620336,-0.0338196308620352,0.0676586484738149,0,0,0,1.00001938693767,-3.61126059611472e-15,-3.61733212828064e-15,0.00850311086221853,0,0,0,0.000102714670617342,0.000180873685698753
1.6,-0.0384694622765019,-0.0384694622765095,0.0769610411361284,0,0,0,1.00002211682769,-4.49206644104194e-15,-4.49943901581484e-15,0.0097004406250084,0,0,0,0.000133324748807929,0.000233959742615858
1.8,-0.0430764313571733,-0.0430764313571767,0.0861776962410524,0,0,0,1.00002483383506,2.17824890069718e-14,2.17837900495788e-14,0.0108921200559678,0,0,0,0.000167700267946605,0.000293195834317379
2,-0.0476413213870605,-0.0476413213870643,0.0953101798043249,0,0,0,1.00002753740935,-1.25567958808581e-14,-1.25489896252162e-14,0.0120779077399214,0,0,0,0.000205773688474273,0.000358360275380031
2.2,-0.0521648943039808,-0.0521648943039938,0.104360015324243,0,0,0,1.0000302271731,3.47985529280948e-15,3.4928657188793e-15,0.0132576381216897,0,0,0,0.000247479447556147,0.000429233111953452
2.4,-0.0566478914660388,-0.0566478914660637,0.113328685307003,0,0,0,1.00003290291619,-1.73758576971217e-14,-1.73758576971217e-14,0.0144312190409019,0,0,0,0.000292753892748743,0.000505596912668912
2.6,-0.0610910343843374,-0.06109103438436,0.122217632724249,0,0,0,1.00003556458796,-4.84334794492725e-15,-4.83987849797529e-15,0.0155986282777814,0,0,0,0.000341535219676033,0.000587237460559748
2.8,-0.0654950254245427,-0.0654950254245654,0.131028262406404,0,0,0,1.00003821228737,2.52142057233229e-14,2.5207266829419e-14,0.0167599092391162,0,0,0,0.000393763413342505,0.000673944345009971
3,-0.0698605484788846,-0.0698605484789071,0.139761942375159,0,0,0,1.00004084625155,1.68528385691147e-15,1.68528385691147e-15,0.0179151659308919,0,0,0,0.000449380192743329,0.000765511454054006
3.2,-0.0741882696099213,-0.0741882696099437,0.148420005118273,0,0,0,1.00004346684306,-9.04745028895704e-15,-9.0431134802671e-15,0.0190645573679857,0,0,0,0.000508328958461316,0.000861737368833083
3.4,-0.0784788376674302,-0.0784788376674526,0.157003748809665,0,0,0,1.00004607453618,7.04297731246584e-15,7.03864050377589e-15,0.0202082915688732,0,0,0,0.000570554742968375,0.000962425663473526
3.6,-0.0827328848796493,-0.0827328848796717,0.165514438477573,0,0,0,1.00004866990259,1.3837889167867e-14,1.3840491253081e-14,0.021346619277555,0,0,0,0.000636004163375251,0.00106738511497552
3.8,-0.086951027420032,-0.086951027420055,0.173953307123438,0,0,0,1.00005125359677,-2.91260071616506e-15,-2.96117297349241e-15,0.022479827544032,0,0,0,0.000704625376396991,0.00117642982882868
4,-0.0911338659506225,-0.0911338659506446,0.182321556793955,0,0,0,1.00005382634127,1.48596412952173e-14,1.48648454656453e-14,0.0236082332823275,0,0,0,0.000776368035324419,0.00128937928697847
4.2,-0.0952819861430881,-0.0952819861431102,0.19062035960865,0,0,0,1.00005638891225,1.39714628755172e-14,1.39784017694211e-14,0.0247321769112709,0,0,0,0.000851183248812099,0.00140605832544486
4.4,-0.0993959591784168,-0.0993959591784371,0.198850858745165,0,0,0,1.00005894212533,-1.72171304990698e-14,-1.71026387496553e-14,0.02585201616981,0,0,0,0.000929023541312509,0.00152629704935549
4.6,-0.103476342226209,-0.103476342226231,0.207014169384326,0,0,0,1.00006148682212,2.16458795332386e-14,2.16406753628107e-14,0.0269681201833637,0,0,0,0.00100984281500362,0.00164993069341272
4.8,-0.107523678904495,-0.107523678904517,0.215111379616945,0,0,0,1.00006402385737,1.58865975929956e-14,1.58813934225677e-14,0.028080863843974,0,0,0,0.00109359631307318,0.00177679943589239
5,-0.11153849972091,-0.111538499720932,0.22314355131421,0,0,0,1.00006655408699,-6.18428919185732e-15,-6.17561557447743e-15,0.0291906225552728,0,0,0,0.00118024058423781,0.00190674817419521
5.2,-0.115521322496084,-0.115521322496106,0.231111720963387,0,0,0,1.000069078357,1.3610640392514e-14,1.36071709455621e-14,0.0302977673788516,0,0,0,0.0012697334483884,0.00203962626976446
5.4,-0.119472652770024,-0.119472652770046,0.2390169004705,0,0,0,1.00007159749341,-1.56975127341141e-14,-1.56940432871622e-14,0.0314026606090791,0,0,0,0.00136203396326582,0.00217528726987153
5.6,-0.123392984192246,-0.123392984192269,0.246860077931526,0,0,0,1.00007411229319,-1.51666873504652e-14,-1.51736262443691e-14,0.0325056517936457,0,0,0,0.00145710239208215,0.00231358861337428
5.8,-0.127282798896394,-0.127282798896415,0.254642218373581,0,0,0,1.0000766235162,4.04693639710629e-14,4.04693639710629e-14,0.0336070742067839,0,0,0,0.00155490017201256,0.00245439132709557
6,-0.131142567860018,-0.13114256786004,0.262364264467491,0,0,0,1.00007913187819,1.66412023050455e-14,1.66412023050455e-14,0.0347072417762811,0,0,0,0.00165538988349289,0.00259755971896562
6.2,-0.13497275125021,-0.134972751250232,0.27002713721306,0,0,0,1.00008163804482,1.62942576098501e-14,1.62873187159462e-14,0.0358064464587393,0,0,0,0.00175853522026552,0.00274296107353928
6.4,-0.138773798755698,-0.13877379875572,0.27763173659828,0,0,0,1.00008414262665,-5.15559817060307e-15,-5.15386344712709e-15,0.036904956050559,0,0,0,0.00186430096012436,0.0028904653549513
6.6,-0.142546149906027,-0.142546149906049,0.285178942233662,0,0,0,1.00008664617515,8.81412998143816e-15,8.8106605344862e-15,0.0380030124205173,0,0,0,0.00197265293631613,0.00303994492181705
6.8,-0.146290234378408,-0.14629023437843,0.29266961396282,0,0,0,1.00008914917953,1.1894998874773e-14,1.1889794704345e-14,0.0391008301439092,0,0,0,0.00208355800956125,0.00319127425803532
7,-0.150006472292773,-0.150006472292795,0.300104592450338,0,0,0,1.00009165206456,1.4507492429594e-14,1.45144313234979e-14,0.0401985955175303,0,0,0,0.00219698404066318,0.00334432972290734
7.2,-0.153695274495589,-0.153695274495611,0.307484699747961,0,0,0,1.00009415518908,-2.96828533974391e-14,-2.97314256547665e-14,0.0412964659314544,0,0,0,0.0023128998636796,0.00349898932345853
7.4,-0.157357042832909,-0.157357042832933,0.314810739840034,0,0,0,1.00009665884536,1.68615121864946e-14,1.67452857136041e-14,0.0423945695735614,0,0,0,0.00243127525963323,0.00365513251134052
7.6,-0.160992170413172,-0.160992170413194,0.322083499169113,0,0,0,1.0000991632591,-3.91683213640803e-14,-3.91700560875563e-14,0.0434930054403056,0,0,0,0.00255208093074354,0.00381264000620266
7.8,-0.164601041860176,-0.164601041860198,0.3293037471426,0,0,0,1.00010166859013,-1.81053089187699e-14,-1.8100104748342e-14,0.0445918436300071,0,0,0,0.00267528847516412,0.00397139364695696
8,-0.168184033556696,-0.168184033556717,0.336472236621213,0,0,0,1.00010417493363,-4.25284807370474e-14,-4.24747043092921e-14,0.0456911258904548,0,0,0,0.0028008703622129,0.00413127627191936
8.2,-0.17174151387914,-0.171741513879162,0.343589704390077,0,0,0,1.00010668232193,1.61641533491519e-14,1.61658880726279e-14,0.0467908663981767,0,0,0,0.00292879990808508,0.00429217162839323
8.4,-0.175273843423647,-0.175273843423669,0.350656871613169,0,0,0,1.00010919072673,1.870031907103e-14,1.87072579649339e-14,0.0478910527424218,0,0,0,0.00305905125204041,0.00445396431186916
8.6,-0.178781375224006,-0.178781375224028,0.357674444271816,0,0,0,1.00011170006177,2.18054740930285e-14,2.18020046460765e-14,0.0489916470920219,0,0,0,0.0031915993330584,0.00461653973464906
8.8,-0.182264454961754,-0.182264454961777,0.364643113587909,0,0,0,1.00011421018586,-5.7221588578571e-14,-5.72770997298022e-14,0.0500925875203546,0,0,0,0.00332641986695602,0.00477978412335973
9,-0.185723421168799,-0.185723421168819,0.371563556432483,0,0,0,1.00011672090622,-1.33955346814929e-14,-1.33990041284449e-14,0.0511937894679495,0,0,0,0.00346348932396414,0.0049435845445049
9.2,-0.18915860542288,-0.1891586054229,0.378436435720245,0,0,0,1.00011923198203,3.3584246494911e-15,3.35495520253914e-15,0.052295147319914,0,0,0,0.00360278490675917,0.00510782895691243
9.4,-0.192570332536199,-0.192570332536221,0.385262400790645,0,0,0,1.00012174312832,8.451572774959e-15,8.45851166886291e-15,0.053396536080466,0,0,0,0.00374428452894773,0.00527240628966555
9.6,-0.195958920737499,-0.195958920737526,0.392042087776024,0,0,0,1.00012425401989,1.54008750197221e-14,1.53488333154428e-14,0.0544978131238313,0,0,0,0.0038879667940021,0.005437206543865
9.8,-0.19932468184788,-0.199324681847906,0.398776119957368,0,0,0,1.0001267642955,3.54369311672542e-14,3.54299922733503e-14,0.055598820004507,0,0,0,0.00403381097464482,0.00560212091635129
10,-0.202667921450607,-0.202667921450626,0.405465108108164,0,0,0,1.00012927356204,1.5560469579512e-14,1.54945500874248e-14,0.0566993843098169,0,0,0,0.004181796992681,0.00576704194332382
10.2,-0.205988939055182,-0.205988939055199,0.412109650826833,0,0,0,1.00013178139886,1.87350135405495e-15,1.92554305833426e-15,0.0577993215391879,0,0,0,0.00433190539927682,0.00593186366162731
10.4,-0.209288028255929,-0.209288028255947,0.418710334858185,0,0,0,1.00013428736205,1.58623114643319e-14,1.58623114643319e-14,0.0588984369947139,0,0,0,0.00448411735568276,0.00609648178533546
10.6,-0.212565476885303,-0.212565476885317,0.425267735404344,0,0,0,1.00013679098876,-7.85829734617494e-15,-7.85135845227103e-15,0.0599965276693553,0,0,0,0.0046384146144,0.00626079389514734
10.8,-0.215821567162131,-0.21582156716215,0.431782416425538,0,0,0,1.00013929180146,1.59594559789866e-15,1.49186218934005e-15,0.0610933841198639,0,0,0,0.0047947795007882,0.00642469963802522
11,-0.219056575835069,-0.219056575835085,0.438254930931155,0,0,0,1.00014178931216,1.29445065777389e-14,1.29514454716428e-14,0.0621887923114126,0,0,0,0.00495319489511257,0.00658810093444267
11.2,-0.222270774321362,-0.222270774321378,0.444685821261446,0,0,0,1.0001442830265,-3.7917585737901e-14,-3.7924524631805e-14,0.06328253542324,0,0,0,0.00511364421502796,0.00675090219057903
11.4,-0.225464428841212,-0.225464428841228,0.451075619360217,0,0,0,1.0001467724478,-2.60520771622197e-14,-2.60520771622197e-14,0.0643743956045151,0,0,0,0.00527611139849734,0.00691301051279227
11.6,-0.228637800547857,-0.228637800547878,0.457424847038875,0,0,0,1.00014925708087,-4.01068067645838e-15,-4.00721122950642e-15,0.0654641556698296,0,0,0,0.00544058088714153,0.00707433592172526
11.8,-0.23179114565358,-0.231791145653604,0.46373401623214,0,0,0,1.00015173643576,-2.34742780769182e-14,-2.3484686417774e-14,0.0665516007264025,0,0,0,0.00560703761001699,0.00723479156345068
12,-0.234924715551787,-0.234924715551803,0.470003629245736,0,0,0,1.00015421003129,2.94035629178069e-14,2.94105018117108e-14,0.0676365197241796,0,0,0,0.00577546696781787,0.00739429391513773
12.2,-0.238038756935309,-0.238038756935324,0.476234178996372,0,0,0,1.00015667739836,1.70904956853235e-14,1.70904956853235e-14,0.0687187069208104,0,0,0,0.00594585481749816,0.00755276298282736
12.4,-0.241133511911138,-0.241133511911157,0.482426149244293,0,0,0,1.00015913808312,-4.64524252397069e-14,-4.64524252397069e-14,0.0697979632562632,0,0,0,0.00611818745730955,0.00771012248903084
12.6,-0.244209218111658,-0.244209218111674,0.488580014818671,0,0,0,1.00016159164986,-1.84609272313452e-14,-1.84609272313452e-14,0.0708740976300276,0,0,0,0.00629245161225017,0.00786630004801923
12.8,-0.247266108802544,-0.247266108802561,0.494696241836107,0,0,0,1.00016403768371,-1.18828558104411e-14,-1.19279586208165e-14,0.0719469280760016,0,0,0,0.00646863441991907,0.00802122732684515
13,-0.25030441298749,-0.250304412987505,0.500775287912489,0,0,0,1.00016647579305,3.28036209307214e-14,3.28036209307214e-14,0.073016282832133,0,0,0,0.0066467234167709,0.00817484019033054
13.2,-0.253324355509833,-0.253324355509846,0.506817602368452,0,0,0,1.00016890561172,3.56416285374195e-14,3.56416285374195e-14,0.0740820013000307,0,0,0,0.00682670652476517,0.00832707882846677
13.4,-0.256326157151236,-0.256326157151245,0.512823626428664,0,0,0,1.00017132680094,2.84598733468755e-14,2.84668122407794e-14,0.0751439348934967,0,0,0,0.00700857203840387,0.00847788786489603
13.6,-0.259310034727514,-0.259310034727523,0.518793793415168,0,0,0,1.00017373905101,2.84668122407794e-14,2.84702816877314e-14,0.0762019477735777,0,0,0,0.00719230861215133,0.00862721644538122
13.8,-0.262276201181737,-0.262276201181745,0.524728528934982,0,0,0,1.0001761420827,1.8620521791135e-14,1.8620521791135e-14,0.0772559174700418,0,0,0,0.00737790524822968,0.00877501830541449
14,-0.265224865674679,-0.265224865674681,0.53062825106217,0,0,0,1.0001785356484,-1.24553145575135e-15,-1.23859256184744e-15,0.0783057353895485,0,0,0,0.00756535128478328,0.00892125181636495
14.2,-0.26815623367272,-0.268156233672727,0.536493370514568,0,0,0,1.00018091953309,-2.05009620390939e-14,-2.05079009329978e-14,0.0793513072115456,0,0,0,0.00775463638440512,0.0090658800098158
14.4,-0.271070507033339,-0.271070507033346,0.542324290825362,0,0,0,1.00018329355489,-2.2065682614425e-15,-2.1614654510671e-15,0.0803925531739776,0,0,0,0.00794575052301829,0.00920887057998982
14.6,-0.273967884088187,-0.273967884088181,0.548121408509688,0,0,0,1.00018565756555,-1.41900380334903e-15,-1.28022592527088e-15,0.0814294082514507,0,0,0,0.00813868397910522,0.00935019586440481
14.8,-0.276848559723893,-0.27684855972389,0.553885113226438,0,0,0,1.00018801145059,-1.61363977735363e-14,-1.61294588796324e-14,0.0824618222298278,0,0,0,0.00833342732327748,0.00948983280313444
15,-0.279712725460717,-0.279712725460713,0.559615787935423,0,0,0,1.00019035512923,9.65547086728691e-15,9.66240976119082e-15,0.0834897596811069,0,0,0,0.00852997140817867,0.00962776287727127
15.2,-0.282560569528992,-0.282560569528989,0.565313809050061,0,0,0,1.00019268855413,1.25281729435045e-14,1.25281729435045e-14,0.0845131998434938,0,0,0,0.00872830735871329,0.00976397202739637
15.4,-0.285392276943562,-0.28539227694356,0.570979546585738,0,0,0,1.00019501171093,-2.3037127760972e-15,-2.30024332914525e-15,0.0855321364127114,0,0,0,0.00892842656259353,0.00989845055304758
15.6,-0.288208029576204,-0.288208029576199,0.576613364303994,0,0,0,1.00019732461753,1.00509878198096e-14,1.00613961606655e-14,0.0865465772499883,0,0,0,0.00913032066119717,0.0100311929943501
15.8,-0.291008006226108,-0.291008006226107,0.582215619852664,0,0,0,1.00019962732333,-2.20275186979535e-14,-2.20240492510015e-14,0.0875565440132679,0,0,0,0.00933398154072848,0.0101621979971189
16,-0.29379238268852,-0.29379238268852,0.587786664902119,0,0,0,1.00020191990816,-1.02834407655905e-14,-1.02973185533983e-14,0.0885620717189907,0,0,0,0.00953940132367511,0.0102914681628658
16.2,-0.296561331821527,-0.296561331821527,0.593326845277734,0,0,0,1.00020420248117,2.52957377266938e-14,2.52853293858379e-14,0.0895632082405911,0,0,0,0.00974657236055303,0.0104190098852634
16.4,-0.299315023611109,-0.299315023611109,0.598836501088704,0,0,0,1.00020647517955,9.59302082215174e-15,9.5964902691037e-15,0.0905600137517175,0,0,0,0.00995548722193235,0.0105448331746504
16.6,-0.30205362523447,-0.302053625234468,0.60431596685333,0,0,0,1.00020873816717,-2.07889261361061e-14,-2.07021899623072e-14,0.0915525601214061,0,0,0,0.0101661386907366,0.0106689514722738
16.8,-0.30477730112171,-0.30477730112171,0.609765571620894,0,0,0,1.00021099163308,7.10889680455296e-15,7.12277459236077e-15,0.092540930268155,0,0,0,0.0103785197548079,0.0107913814559494
17,-0.307486213015893,-0.307486213015892,0.615185639090233,0,0,0,1.00021323578997,-1.35447209004269e-14,-1.3541251453475e-14,0.0935252174802901,0,0,0,0.010592623599731,0.0109121428388465
17.2,-0.310180520031526,-0.310180520031525,0.62057648772511,0,0,0,1.00021547087257,1.28994037673635e-14,1.28994037673635e-14,0.094505524710496,0,0,0,0.0108084436019082,0.0110312581630825
17.4,-0.312860378711539,-0.312860378711538,0.625938430866495,0,0,0,1.000217697136,2.96845881209151e-14,2.96845881209151e-14,0.0954819638501031,0,0,0,0.0110259733218798,0.0111487525897792
17.6,-0.315525943082762,-0.315525943082762,0.631271776841858,0,0,0,1.00021991485406,-4.87110352054287e-15,-4.87110352054287e-15,0.0964546549910322,0,0,0,0.0112452064978803,0.0112646536871763
17.8,-0.318177364709973,-0.318177364709973,0.636576829071551,0,0,0,1.00022212431756,2.47302178735254e-14,2.47371567674293e-14,0.0974237256811684,0,0,0,0.0114661370396255,0.0113789912183304
18,-0.320814792748536,-0.320814792748536,0.641853886172395,0,0,0,1.0002243258326,-9.499345754449e-15,-9.499345754449e-15,0.09838931017858,0,0,0,0.0116887590223235,0.011491796929839
18.2,-0.323438373995676,-0.323438373995676,0.647103242058539,0,0,0,1.0002265197189,-1.59941504485062e-14,-1.60010893424101e-14,0.0993515487115091,0,0,0,0.0119130666809009,0.0116031043429377
18.4,-0.326048252940429,-0.326048252940428,0.65232518603969,0,0,0,1.00022870630813,-1.38777878078145e-14,-1.38708489139105e-14,0.100310586747545,0,0,0,0.0121390544044397,0.0117129485482074
18.6,-0.328644571812293,-0.328644571812293,0.657520002916794,0,0,0,1.00023088594227,1.65145674912992e-15,1.65145674912992e-15,0.101266574277841,0,0,0,0.0123667167308175,0.0118213660050193
18.8,-0.33122747062863,-0.331227470628629,0.662687973075237,0,0,0,1.000233058972,-3.00454106039183e-14,-3.00454106039183e-14,0.102219665119791,0,0,0,0.0125960483415438,0.0119283943467254
19,-0.333797087240835,-0.333797087240834,0.667829372575656,0,0,0,1.00023522575523,-3.27515792264421e-15,-3.27515792264421e-15,0.103170016242349,0,0,0,0.0128270440567872,0.0120340721924805
19.2,-0.336353557379324,-0.336353557379324,0.672944473242426,0,0,0,1.00023738665553,2.57571741713036e-14,2.57641130652075e-14,0.104117787116221,0,0,0,0.0130596988305869,0.0121384389664614
19.4,-0.338897014697358,-0.338897014697358,0.678033542749897,0,0,0,1.0002395420408,-1.67435509901281e-14,-1.67435509901281e-14,0.10506313909263,0,0,0,0.0132940077462411,0.0122415347251264
19.6,-0.341427590813742,-0.341427590813742,0.683096844706444,0,0,0,1.00024169228183,-5.93275428784068e-15,-5.94663207564849e-15,0.106006234812411,0,0,0,0.0135299660118693,0.0123433999930408
19.8,-0.343945415354431,-0.343945415354431,0.688134638736401,0,0,0,1.00024383775113,-3.19883008970123e-15,-3.19189119579733e-15,0.106947237646508,0,0,0,0.0137675689561391,0.0124440756076802
20,-0.346450615993069,-0.346450615993069,0.693147180559945,0,0,0,1.00024597882164,-1.68684510803985e-14,-1.68684510803985e-14,0.10788631117037,0,0,0,0.0140068120241544,0.0125436025735119
20.2,-0.348943318490495,-0.348943318490494,0.698134722070984,0,0,0,1.00024811586565,1.04846686888038e-14,1.04846686888038e-14,0.108823618672311,0,0,0,0.0142476907734981,0.0126420219255566
20.4,-0.351423646733241,-0.351423646733241,0.703097511413114,0,0,0,1.00025024925375,-2.02407535176974e-14,-2.02407535176974e-14,0.109759322696325,0,0,0,0.0144902008704243,0.0127393746025322
20.6,-0.353891722771054,-0.353891722771054,0.708035793053696,0,0,0,1.0002523793539,-3.82333054105288e-15,-3.82333054105288e-15,0.110693584620348,0,0,0,0.0147343380861949,0.0128357013295971
20.8,-0.356347666853469,-0.356347666853469,0.712949807856125,0,0,0,1.00025450653048,-4.24660306919122e-15,-4.25354196309513e-15,0.111626564268528,0,0,0,0.0149800982935543,0.0129310425106291
21,-0.358791597465456,-0.358791597465456,0.717839793150317,0,0,0,1.00025663114354,1.07969189144796e-14,1.07969189144796e-14,0.112558419558433,0,0,0,0.015227477463339,0.0130254381299058
21.2,-0.361223631362175,-0.361223631362175,0.72270598280149,0,0,0,1.00025875354807,2.86645707170408e-14,2.86298762475212e-14,0.113489306181512,0,0,0,0.015476471661215,0.0131189276629881
21.4,-0.363643883602859,-0.363643883602859,0.727548607277278,0,0,0,1.00026087409329,-3.62973540113387e-14,-3.62973540113387e-14,0.114419377316437,0,0,0,0.0157270770445406,0.0132115499965555
21.6,-0.366052467583853,-0.366052467583853,0.732367893713227,0,0,0,1.00026299312215,-2.80331313717852e-15,-2.80331313717852e-15,0.115348783374534,0,0,0,0.0159792898593478,0.0133033433568936
21.8,-0.368449495070832,-0.368449495070832,0.73716406597672,0,0,0,1.00026511097076,3.34454686168328e-14,3.34454686168328e-14,0.116277671774824,0,0,0,0.0162331064374391,0.0133943452466974
22,-0.370835076230224,-0.370835076230223,0.741937344729377,0,0,0,1.00026722796796,1.44606548957427e-14,1.44675937896466e-14,0.117206186749113,0,0,0,0.0164885231935951,0.0134845923898212
22.2,-0.373209319659857,-0.373209319659856,0.746687947487975,0,0,0,1.00026934443496,1.1893264151297e-14,1.18793863634892e-14,0.118134469174584,0,0,0,0.0167455366228885,0.0135741206835825
22.4,-0.375572332418863,-0.375572332418863,0.751416088683921,0,0,0,1.00027146068498,1.1067535776732e-14,1.1067535776732e-14,0.119062656432336,0,0,0,0.0170041432981002,0.0136629651582099
22.6,-0.377924220056849,-0.377924220056848,0.756121979721334,0,0,0,1.00027357702301,-3.06421554796543e-14,-3.06421554796543e-14,0.119990882290887,0,0,0,0.0172643398672346,0.0137511599430112
22.8,-0.380265086642357,-0.380265086642357,0.76080582903376,0,0,0,1.00027569374558,-7.2025718722557e-15,-7.1956329783518e-15,0.120919276812915,0,0,0,0.0175261230511287,0.0138387382388333
23,-0.382595034790653,-0.382595034790652,0.765467842139572,0,0,0,1.00027781114064,-9.3119956190435e-15,-9.3119956190435e-15,0.121847966283001,0,0,0,0.0177894896411526,0.013925732296383
23.2,-0.384914165690831,-0.384914165690831,0.770108221696074,0,0,0,1.00027992948736,-1.46480050311482e-14,-1.46341272433403e-14,0.122777073155978,0,0,0,0.0180544364969972,0.0140121733999795
23.4,-0.387222579132293,-0.387222579132292,0.774727167552368,0,0,0,1.00028204905614,-2.66661692727155e-14,-2.66522914849077e-14,0.123706716023222,0,0,0,0.0183209605445461,0.0140980918563165
23.6,-0.389520373530579,-0.389520373530579,0.779324876800998,0,0,0,1.00028417010852,1.04083408558608e-14,1.04083408558608e-14,0.124637009596023,0,0,0,0.0185890587738275,0.0141835169878205
23.8,-0.391807645952609,-0.391807645952609,0.78390154382841,0,0,0,1.00028629289718,8.56259507742152e-15,8.55565618351761e-15,0.12556806470404,0,0,0,0.0188587282370446,0.0142684771302031
24,-0.394084492141324,-0.394084492141324,0.78845736036427,0,0,0,1.000288417666,-1.62647673107585e-14,-1.62717062046625e-14,0.126499988308152,0,0,0,0.0191299660466791,0.0143529996338207
24.2,-0.396351006539752,-0.396351006539752,0.792992515529661,0,0,0,1.00029054465008,1.15463194561016e-14,1.15463194561016e-14,0.127432883525573,0,0,0,0.0194027693736669,0.0144371108684694
24.4,-0.398607282314522,-0.398607282314522,0.797507195884188,0,0,0,1.00029267407585,4.73926453636864e-15,4.74620343027254e-15,0.128366849666041,0,0,0,0.0196771354456422,0.0145208362312597
24.6,-0.40085341137884,-0.40085341137884,0.802001585472028,0,0,0,1.00029480616115,-1.1740608485411e-14,-1.1740608485411e-14,0.129301982278498,0,0,0,0.0199530615452469,0.0146042001572359
24.8,-0.403089484414927,-0.403089484414928,0.806475865866949,0,0,0,1.00029694111538,3.06907277369817e-14,3.06560332674621e-14,0.130238373206255,0,0,0,0.0202305450085038,0.01468722613242
25,-0.405315590895966,-0.405315590895965,0.810930216216329,0,0,0,1.00029907913965,6.40459907330637e-15,6.41153796721028e-15,0.131176110649695,0,0,0,0.02050958322325,0.0147699367089847
25.2,-0.407531819107532,-0.407531819107532,0.815364813284195,0,0,0,1.0003012204269,-1.0623446566882e-14,-1.06165076729781e-14,0.132115279236294,0,0,0,0.0207901736276286,0.0148523535222716
25.4,-0.409738256168561,-0.409738256168561,0.819779831493312,0,0,0,1.0003033651621,8.00054467120503e-15,7.99360577730113e-15,0.133055960095705,0,0,0,0.0210723137086358,0.0149344973093989
25.6,-0.411934988051834,-0.411934988051834,0.824175442966349,0,0,0,1.00030551352243,1.22610255282041e-14,1.2267964422108e-14,0.133998230939877,0,0,0,0.021356001000722,0.0150163879292131
25.8,-0.414122099604018,-0.414122099604019,0.828551817566148,0,0,0,1.00030766567749,3.37230243729891e-15,3.30291349825984e-15,0.134942166147336,0,0,0,0.0216412330844444,0.0150980443833653
26,-0.416299674565259,-0.416299674565259,0.832909122935104,0,0,0,1.00030982178944,-5.38458166943201e-15,-5.3776427755281e-15,0.135887836850514,0,0,0,0.0219280075851682,0.0151794848383042
26.2,-0.418467795588344,-0.418467795588344,0.837247524533702,0,0,0,1.00031198201328,2.89351875792931e-15,2.86576318231369e-15,0.136835311025663,0,0,0,0.0222163221718158,0.0152607266480006
26.4,-0.420626544257448,-0.420626544257448,0.841567185678219,0,0,0,1.000314146497,-1.12618248060414e-14,-1.12618248060414e-14,0.137784653584617,0,0,0,0.0225061745556609,0.0153417863772304
26.6,-0.422776001106474,-0.422776001106474,0.845868267577609,0,0,0,1.00031631538182,1.93595139919012e-15,1.93595139919012e-15,0.138735926468088,0,0,0,0.0227975624891666,0.0154226798252631
26.8,-0.424916245636993,-0.424916245636994,0.85015092936961,0,0,0,1.00031848880242,2.3189783426858e-14,2.31828445329541e-14,0.139689188739477,0,0,0,0.0230904837648647,0.0155034220498136
27,-0.427047356335806,-0.427047356335806,0.854415328156068,0,0,0,1.00032066688709,-1.84227633148737e-14,-1.84227633148737e-14,0.140644496679212,0,0,0,0.0233849362142759,0.0155840273911324
27.2,-0.42916941069212,-0.429169410692121,0.858661619037519,0,0,0,1.00032284975805,2.17881268582687e-14,2.17881268582687e-14,0.141601903879261,0,0,0,0.0236809177068675,0.0156645094961218
27.4,-0.431282485214374,-0.431282485214374,0.86288995514704,0,0,0,1.00032503753155,3.92325061326915e-14,3.92325061326915e-14,0.142561461336485,0,0,0,0.0239784261490488,0.015744881342377
27.6,-0.433386655446692,-0.433386655446692,0.867100487683383,0,0,0,1.00032723031816,-1.08732467474226e-14,-1.08593689596148e-14,0.143523217546,0,0,0,0.0242774594832017,0.0158251552620645
27.8,-0.435481995985008,-0.435481995985008,0.871293365943419,0,0,0,1.00032942822297,2.51812459772793e-14,2.51812459772793e-14,0.144487218593324,0,0,0,0.0245780156867448,0.015905342965559
28,-0.437568580492837,-0.437568580492837,0.8754687373539,0,0,0,1.00033163134575,-1.39471767468535e-15,-1.39471767468535e-15,0.145453508244582,0,0,0,0.0248800927712312,0.0159854555647715
28.2,-0.439646481716729,-0.439646481716731,0.879626747502564,0,0,0,1.0003338397812,1.34545152796761e-14,1.33990041284449e-14,0.146422128036264,0,0,0,0.0251836887814765,0.0160655035961102
28.4,-0.441715771501404,-0.441715771501404,0.883767540168595,0,0,0,1.00033605361916,1.97827865200395e-14,1.97827865200395e-14,0.147393117362321,0,0,0,0.0254888017947176,0.0161454970430226
28.6,-0.443776520804558,-0.443776520804559,0.887891257352457,0,0,0,1.00033827294473,-8.31973379078477e-15,-8.31973379078477e-15,0.148366513560002,0,0,0,0.0257954299197998,0.0162254453580784
28.8,-0.445828799711391,-0.445828799711391,0.891998039305111,0,0,0,1.00034049783856,1.7125190154843e-14,1.71321290487469e-14,0.149342351993621,0,0,0,0.0261035712963922,0.0163053574845549
29,-0.447872677448814,-0.447872677448814,0.896088024556636,0,0,0,1.00034272837696,1.07830411266718e-14,1.07830411266718e-14,0.150320666135866,0,0,0,0.0264132240942292,0.016385241877498
29.2,-0.449908222399385,-0.449908222399385,0.900161349944271,0,0,0,1.00034496463212,1.90195081906097e-14,1.90195081906097e-14,0.151301487647538,0,0,0,0.0267243865123778,0.0164651065242345
29.4,-0.451935502114955,-0.451935502114956,0.904218150639886,0,0,0,1.00034720667226,2.06085148946045e-15,2.03309591384482e-15,0.152284846454529,0,0,0,0.027037056778529,0.0165449589643166
29.6,-0.453954583330038,-0.453954583330037,0.908258560176891,0,0,0,1.00034945456184,-1.43843270627997e-14,-1.43426936993762e-14,0.153270770822902,0,0,0,0.0273512331483136,0.0166248063088863
29.8,-0.455965531974914,-0.455965531974913,0.912282710476616,0,0,0,1.00035170836168,8.18789480661053e-15,8.2572837456496e-15,0.154259287431455,0,0,0,0.0276669139046395,0.01670465525945
30,-0.457968413188476,-0.457968413188476,0.916290731874155,0,0,0,1.00035396812914,-8.18789480661053e-16,-8.04911692853238e-16,0.155250421441883,0,0,0,0.0279840973570517,0.0167845121260569
30.2,-0.459963291330815,-0.459963291330814,0.920282753143693,0,0,0,1.0003562339183,-1.95607419151145e-14,-1.95607419151145e-14,0.156244196566944,0,0,0,0.0283027818411126,0.0168643828448788
30.4,-0.461950229995556,-0.461950229995555,0.924258901523332,0,0,0,1.00035850578006,-2.84425261121157e-14,-2.84425261121157e-14,0.157240635135991,0,0,0,0.0286229657178023,0.0169442729951929
30.6,-0.463929292021955,-0.463929292021955,0.928219302739429,0,0,0,1.00036078376233,1.67296732023203e-14,1.67296732023203e-14,0.158239758158322,0,0,0,0.0289446473729386,0.017024187815769
30.8,-0.465900539506759,-0.465900539506759,0.932164081030445,0,0,0,1.00036306791013,2.22044604925031e-16,2.28983498828939e-16,0.159241585384025,0,0,0,0.0292678252166151,0.0171041322206681
31,-0.467864033815826,-0.467864033815826,0.936093359170335,0,0,0,1.00036535826576,2.11983208764366e-14,2.12121986642444e-14,0.160246135363125,0,0,0,0.0295924976826571,0.017184110814457
31.2,-0.469819835595529,-0.469819835595528,0.940007258491471,0,0,0,1.00036765486891,1.53418944215389e-14,1.5334955527635e-14,0.16125342550175,0,0,0,0.0299186632280952,0.0172641279068505
31.4,-0.471768004783931,-0.47176800478393,0.943905898907129,0,0,0,1.00036995775676,-2.51534904016637e-14,-2.51465515077598e-14,0.162263472116724,0,0,0,0.0302463203326543,0.0173441875267895
31.6,-0.473708600621752,-0.473708600621752,0.947789398933526,0,0,0,1.00037226696418,-2.84772205816353e-14,-2.84702816877314e-14,0.163276290487808,0,0,0,0.0305754674982591,0.0174242934359665
31.8,-0.475641681663119,-0.475641681663117,0.951657875711446,0,0,0,1.00037458252373,-3.7470027081099e-16,-3.33066907387547e-16,0.164291894907694,0,0,0,0.0309061032485549,0.0175044491418117
32,-0.477567305786107,-0.477567305786107,0.955511445027436,0,0,0,1.00037690446587,1.07830411266718e-14,1.07830411266718e-14,0.165310298730131,0,0,0,0.0312382261284426,0.017584657909952
32.2,-0.479485530203094,-0.479485530203093,0.959350221334602,0,0,0,1.00037923281901,2.52506349163184e-14,2.52575738102223e-14,0.166331514416168,0,0,0,0.0315718347036278,0.0176649227761569
32.4,-0.481396411470898,-0.481396411470898,0.963174317773006,0,0,0,1.00038156760962,-2.29816166097407e-14,-2.30024332914525e-14,0.167355553578182,0,0,0,0.0319069275601837,0.0177452465577853
32.6,-0.483300005500743,-0.483300005500742,0.966983846189673,0,0,0,1.00038390886234,1.95676808090184e-14,1.95676808090184e-14,0.168382427022513,0,0,0,0.0322435033041269,0.0178256318647482
32.8,-0.48519636756531,-0.48519636756531,0.970778917158225,0,0,0,1.00038625660548,7.92639724689348e-10,7.92639669178197e-10,0.169412145580282,0,0,0,0.0325815605609735,0.017906081109761
33,-0.487085552327714,-0.487085552310679,0.974559639998131,0,0,0,1.00038861084938,7.81693799967176e-10,7.82429503132231e-10,0.170444716972786,0,0,0,0.0329210979754668,0.0179865965193491
33.2,-0.488967613791841,-0.488967613792105,0.978326122793608,0,0,0,1.00039097161915,7.68607892609463e-10,7.68596353228901e-10,0.171480150622046,0,0,0,0.033262114211,0.0180671801419939
33.4,-0.490842605408321,-0.490842605408299,0.982078472412158,0,0,0,1.00039333893302,7.58699422731546e-10,7.58700241521026e-10,0.172518454503499,0,0,0,0.0336046079493637,0.0181478338582759
33.6,-0.492710579994311,-0.492710579994418,0.985816794522765,0,0,0,1.0003957128077,7.48205671030622e-10,7.48200938704979e-10,0.173559635961354,0,0,0,0.0339485778903503,0.0182285593894024
33.8,-0.494571589778206,-0.494571589795025,0.989541193613748,0,0,0,1.00039809325861,7.36966182524057e-10,7.36241935472837e-10,0.174603701755115,0,0,0,0.034294022751397,0.0183093583055742
34,-0.496425686440579,-0.496425686440617,0.993251773010283,0,0,0,1.00040048029992,7.26879938184322e-10,7.2687817570527e-10,0.175650658090284,0,0,0,0.0346409412672403,0.0183902320339766
34.2,-0.498272921039504,-0.4982729210395,0.996948634891609,0,0,0,1.00040287394452,7.1521232686278e-10,7.15212333801674e-10,0.176700510637552,0,0,0,0.0349893321895806,0.0184711818664075
34.4,-0.500113344102534,-0.50011334410253,1.00063188030791,0,0,0,1.00040527420425,7.04755191704987e-10,7.04755205582774e-10,0.17775326457462,0,0,0,0.0353391942867543,0.0185522089665467
34.6,-0.501947005593205,-0.501947005593205,1.00430160919687,0,0,0,1.00040768108981,6.95097070180228e-10,6.95096896707881e-10,0.178808924602487,0,0,0,0.0356905263434165,0.0186333143768958
34.8,-0.503773954927273,-0.503773954927604,1.00795792039998,0,0,0,1.00041009461092,6.86227512314286e-10,6.86213162681693e-10,0.179867494974933,0,0,0,0.0360433271602319,0.0187144990253882
35,-0.505594240981531,-0.505594240981516,1.01160091167848,0,0,0,1.00041251477626,6.74603602146551e-10,6.7460408093023e-10,0.180928979518978,0,0,0,0.0363975955535735,0.0187957637316918
35.2,-0.507407912099905,-0.507407912099891,1.01523067972906,0,0,0,1.00041494159372,6.66765247181456e-10,6.66765621881726e-10,0.181993381671583,0,0,0,0.0367533303552294,0.018877109213207
35.4,-0.509215016102928,-0.509215016102884,1.01884732019925,0,0,0,1.00041737507018,6.52950332691304e-10,6.52951984148054e-10,0.183060704475495,0,0,0,0.037110530412119,0.0189585360907926
35.6,-0.511015600280577,-0.511015600307837,1.02245092770255,0,0,0,1.00041981521188,6.46770227652471e-10,6.45604313065373e-10,0.184130950639242,0,0,0,0.0374691945860126,0.0190400448941962
35.8,-0.512809711468323,-0.512809711468336,1.02604159583327,0,0,0,1.00042226202413,6.36872013459744e-10,6.36871236303627e-10,0.185204122511858,0,0,0,0.0378293217532644,0.0191216360672509
36,-0.514597395917837,-0.514597395917832,1.02961941718116,0,0,0,1.00042471551159,6.25239748863748e-10,6.25239748863748e-10,0.186280222134336,0,0,0,0.0381909108045461,0.019203309972795
36.2,-0.516378699440416,-0.516378699440522,1.03318448334565,0,0,0,1.00042717567827,6.17851145245929e-10,6.17846412920287e-10,0.187359251254254,0,0,0,0.0385539606445912,0.0192850668973649
36.4,-0.518153667346265,-0.518153667346226,1.03673688495002,0,0,0,1.00042964252745,6.08662523160497e-10,6.08663841550339e-10,0.188441211324158,0,0,0,0.0389184701919451,0.0193669070556628
36.6,-0.519922344464236,-0.519922344464286,1.04027671165515,0,0,0,1.00043211606188,6.01068153582851e-10,6.01065724969985e-10,0.189526103539936,0,0,0,0.0392844383787201,0.0194488305947928
36.8,-0.521684775146841,-0.521684775152198,1.04380405217311,0,0,0,1.00043459628369,5.92505947083488e-10,5.92277546451747e-10,0.19061392884098,0,0,0,0.0396518641503582,0.0195308375982999
37,-0.523441003289563,-0.523441003289527,1.04731899428056,0,0,0,1.0004370831945,5.86155596282723e-10,5.86156886916989e-10,0.191704687937228,0,0,0,0.0400207464653983,0.0196129280899996
37.2,-0.525191072316293,-0.525191072305647,1.05082162483176,0,0,0,1.0004395767954,5.76512490524372e-10,5.76964975795846e-10,0.192798381307973,0,0,0,0.0403910842952509,0.019695102037627
37.4,-0.526935025185854,-0.526935025185918,1.05431202977153,0,0,0,1.00044207708704,5.70577807224026e-10,5.70574823499648e-10,0.193895009236405,0,0,0,0.0407628766239753,0.0197773593562906
37.6,-0.528672904438319,-0.528672904438158,1.05779029414785,0,0,0,1.00044458406959,5.62421692551496e-10,5.62428201233978e-10,0.19499457179865,0,0,0,0.041136122448066,0.0198596999117683
37.8,-0.530404752149805,-0.530404752150116,1.06125650212434,0,0,0,1.00044709774284,5.55702553417525e-10,5.55688980941049e-10,0.196097068896147,0,0,0,0.0415108207762404,0.0199421235236227
38,-0.53213060996714,-0.532130609967089,1.06471073699243,0,0,0,1.00044961810613,5.48228296093356e-10,5.4823004469462e-10,0.197202500252929,0,0,0,0.0418869706292343,0.0200246299681697
38.2,-0.53385051910587,-0.533850519105876,1.0681530811834,0,0,0,1.00045214515848,5.37757241514392e-10,5.3775661701394e-10,0.198310865431973,0,0,0,0.042264571039601,0.0201072189812908
38.4,-0.535564520366218,-0.535564520350524,1.07158361628019,0,0,0,1.00045467889858,5.30401667031555e-10,5.31066163267369e-10,0.199422163854345,0,0,0,0.042643621051514,0.0201898902611003
38.6,-0.537272654098558,-0.537272654098578,1.07500242302898,0,0,0,1.00045721932475,5.22266299651797e-10,5.22265092284258e-10,0.200536394788998,0,0,0,0.0430241197205772,0.0202726434704849
38.8,-0.538974960287862,-0.53897496028788,1.07840958135059,0,0,0,1.00045976643505,5.15908898934825e-10,5.15907830345164e-10,0.20165355738183,0,0,0,0.0434060661136362,0.0203554782395008
39,-0.540671478480793,-0.540671478480759,1.08180517035173,0,0,0,1.00046232022725,5.09609215937346e-10,5.09610298404795e-10,0.202773650650493,0,0,0,0.0437894593085961,0.0204383941676571
39.2,-0.542362247830347,-0.54236224783034,1.08518926833597,0,0,0,1.00046488069884,5.04286973290746e-10,5.04286959412958e-10,0.203896673501329,0,0,0,0.044174298394242,0.0205213908260738
39.4,-0.544047307085883,-0.544047307101359,1.08856195281461,0,0,0,1.00046744784708,4.98352026312432e-10,4.97698104950928e-10,0.205022624731521,0,0,0,0.0445605824700646,0.0206044677595325
39.6,-0.545726694636924,-0.545726694636968,1.09192330051731,0,0,0,1.00047002166901,4.91852031325735e-10,4.91849838635261e-10,0.20615150304238,0,0,0,0.0449483106460881,0.0206876244884148
39.8,-0.547400448441176,-0.547400448441205,1.0952733874026,0,0,0,1.00047260216144,4.83941983708824e-10,4.83940387763226e-10,0.207283307040707,0,0,0,0.0453374820427041,0.0207708605105446
40,-0.549068606106909,-0.549068606106849,1.09861228866811,0,0,0,1.00047518932104,4.77991105030107e-10,4.77993269965005e-10,0.208418035253895,0,0,0,0.0457280957905063,0.0208541753029262
40.2,-0.547402275460784,-0.547402275460782,1.0952733874026,0,0,0,1.00046894640203,4.79375955597661e-10,4.79375636408541e-10,0.205679890971602,0,0,0,0.0453375382185387,0.0203424917499676
40.4,-0.545730273806647,-0.545730273806611,1.09192330051731,0,0,0,1.0004628599907,4.86404472255231e-10,4.86405610233831e-10,0.203010390947603,0,0,0,0.0449484204891621,0.0198484567251889
40.6,-0.544052568210966,-0.544052568214626,1.08856195281461,0,0,0,1.00045692074551,4.95069082950828e-10,4.94914442761285e-10,0.200405437992097,0,0,0,0.0445607435337666,0.0193709768532277
40.8,-0.542369124948691,-0.542369124948683,1.08518926833597,0,0,0,1.0004511201627,5.0015441788176e-10,5.00154390126184e-10,0.197861302361271,0,0,0,0.0441745082960112,0.0189090565561463
41,-0.540679909527206,-0.540679909527197,1.08180517035173,0,0,0,1.00044545048094,5.07684908002126e-10,5.07684894124338e-10,0.195374579923707,0,0,0,0.0437897157310953,0.0184617869441664
41.2,-0.538984886740735,-0.538984886740725,1.07840958135059,0,0,0,1.00043990459879,5.15271325607358e-10,5.15271353362934e-10,0.192942155999412,0,0,0,0.0434063668052343,0.018028336220123
41.4,-0.53728402068406,-0.537284020698935,1.07500242302898,0,0,0,1.00043447600335,5.20701509687527e-10,5.20073761833828e-10,0.19056117402839,0,0,0,0.0430244624952911,0.0176079413590046
41.6,-0.535577274817194,-0.535577274817185,1.07158361628019,0,0,0,1.00042915870807,5.28777993613616e-10,5.2877796585804e-10,0.188229008302739,0,0,0,0.0426440037885345,0.0171999008664341
41.8,-0.53386461191258,-0.533864611912702,1.0681530811834,0,0,0,1.00042394719834,5.35018411518262e-10,5.35012867342033e-10,0.185943240122595,0,0,0,0.0422649916825016,0.0168035684540341
42,-0.532145994147966,-0.532145994147943,1.06471073699243,0,0,0,1.00041883638399,5.42183957452647e-10,5.4218456807531e-10,0.18370163693544,0,0,0,0.0418874271849382,0.0164183474971089
42.2,-0.530421383083743,-0.530421383083726,1.06125650212434,0,0,0,1.0004138215574,5.53207382680831e-10,5.53207701869951e-10,0.181502133968395,0,0,0,0.0415113113138074,0.0160436861624491
42.4,-0.528690739681876,-0.528690739685667,1.05779029414785,0,0,0,1.00040889835646,5.5975279272813e-10,5.59592171212042e-10,0.17934281802492,0,0,0,0.041136645097353,0.0156790731122531
42.6,-0.52695402432536,-0.526954024325381,1.05431202977153,0,0,0,1.00040406273215,5.67295536935131e-10,5.67294253239758e-10,0.17722191318698,0,0,0,0.0407634295742008,0.0153240337050902
42.8,-0.525211196809794,-0.525211196805971,1.05082162483176,0,0,0,1.00039931091938,5.76230022031332e-10,5.76391399886855e-10,0.175137768089517,0,0,0,0.0403916657935017,0.0149781266271572
43,-0.523462216359503,-0.523462216359446,1.04731899428056,0,0,0,1.00039463941126,5.80794010107688e-10,5.80795959936875e-10,0.173088844617801,0,0,0,0.0400213548151017,0.0146409408972124
43.2,-0.521707041642315,-0.521707041642304,1.04380405217311,0,0,0,1.00039004493625,5.92913010355467e-10,5.92913024233255e-10,0.171073707852231,0,0,0,0.0396524977097332,0.0143120931970291
43.4,-0.51994563075083,-0.519945630762431,1.04027671165515,0,0,0,1.00038552443734,6.00967990649348e-10,6.00475419387791e-10,0.169091017014552,0,0,0,0.0392850955592347,0.0139912254862869
43.6,-0.518177941243487,-0.518177941243282,1.03673688495002,0,0,0,1.00038107505391,6.07331067381534e-10,6.07339199765189e-10,0.167139517430327,0,0,0,0.0389191494567781,0.0136780028666463
43.8,-0.516403930076236,-0.516403930095725,1.03318448334565,0,0,0,1.00037669410511,6.19354234565606e-10,6.18525619611177e-10,0.16521803326151,0,0,0,0.0385546605071168,0.0133721116647842
44,-0.514623553711131,-0.514623553711103,1.02961941718116,0,0,0,1.0003723790748,6.26667433223371e-10,6.26668057723823e-10,0.163325460955809,0,0,0,0.038191629826847,0.0130732577082987
44.2,-0.51283676799648,-0.512836767980762,1.02604159583327,0,0,0,1.00036812759837,6.33238302072403e-10,6.33906899194514e-10,0.161460763379113,0,0,0,0.0378300585446752,0.0127811647719248
44.4,-0.511043528230702,-0.51104352823058,1.02245092770255,0,0,0,1.00036393745043,6.43166644942461e-10,6.43171252368013e-10,0.159622964474041,0,0,0,0.0374699478017005,0.0124955731745391
44.6,-0.509243789190151,-0.509243789190113,1.01884732019925,0,0,0,1.00035980653383,6.55676173078046e-10,6.55677172278768e-10,0.157811144426752,0,0,0,0.0371112987517045,0.0122162385099513
44.8,-0.507437505058717,-0.507437505058693,1.01523067972906,0,0,0,1.00035573286958,6.61770603593848e-10,6.61771006049694e-10,0.156024435276104,0,0,0,0.0367541125614503,0.0119429304966811
45,-0.505624629457792,-0.505624629469765,1.01160091167848,0,0,0,1.000351714588,6.71696136211875e-10,6.71183254807861e-10,0.15426201695406,0,0,0,0.0363983904109848,0.0116754319337753
45.2,-0.503805115469402,-0.503805115461384,1.00795792039998,0,0,0,1.00034774992018,6.84916755255838e-10,6.85259460286858e-10,0.15252311362206,0,0,0,0.0360441334939563,0.011413537751356
45.4,-0.501978915552423,-0.501978915552416,1.00430160919687,0,0,0,1.00034383719049,6.9660411466943e-10,6.96603684458008e-10,0.150806990355523,0,0,0,0.0356913430179349,0.011157054145933
45.6,-0.500145981638293,-0.500145981638276,1.00063188030791,0,0,0,1.00033997480968,7.03031917403951e-10,7.03031924342845e-10,0.149112950118298,0,0,0,0.0353400202047394,0.010905797791736
45.8,-0.498306265056267,-0.498306265056251,0.996948634891609,0,0,0,1.00033616126863,7.14955830649622e-10,7.14955823710728e-10,0.147440330992233,0,0,0,0.0349901662907716,0.0106595951203506
46,-0.496459716556518,-0.496459716552443,0.993251773010283,0,0,0,1.00033239513235,7.26038382192762e-10,7.26213290891398e-10,0.145788503594878,0,0,0,0.0346417825273631,0.0104182816618462
46.2,-0.494606286290351,-0.494606286290499,0.989541193613748,0,0,0,1.0003286750347,7.3378628867582e-10,7.33779169370674e-10,0.144156868754006,0,0,0,0.0342948701811222,0.0101817014413413
46.4,-0.492745923825019,-0.492745923825066,0.985816794522765,0,0,0,1.00032499967363,7.48961073715471e-10,7.48958360607954e-10,0.142544855358283,0,0,0,0.0339494305342911,0.00994970642566012
46.6,-0.490878578116719,-0.490878578116731,0.982078472412158,0,0,0,1.00032136780628,7.54947590553279e-10,7.54946369307952e-10,0.140951918324564,0,0,0,0.0336054648851163,0.00972215601532769
46.8,-0.489004197514603,-0.489004197514577,0.978326122793608,0,0,0,1.00031777824524,7.70110961112458e-10,7.70111349690517e-10,0.139377536821914,0,0,0,0.0332629745482145,0.00949891657763198
47,-0.487122729753964,-0.487122729749818,0.974559639998131,0,0,0,1.00031422985421,7.77515767047543e-10,7.77695179088322e-10,0.137821212501213,0,0,0,0.0329219608549631,0.0092798610170151
47.2,-0.485234121938672,-0.485234121938665,0.970778917158225,0,0,0,1.00031072154483,7.89074819373958e-10,7.89074347529173e-10,0.136282467984447,0,0,0,0.0325824251538833,0.00906486837936235
47.4,-0.48333832055721,-0.483338320557192,0.966983846189673,0,0,0,1.00030725226758,5.90499871222505e-15,5.90499871222505e-15,0.134760844561937,0,0,0,0.0322443688111378,0.0088538234873381
47.6,-0.481435271443318,-0.481435271443303,0.963174317773006,0,0,0,1.00030382103065,-4.66987559732956e-15,-4.66293670342566e-15,0.133255904042061,0,0,0,0.0319077932105686,0.00864661660322787
47.8,-0.479524919794661,-0.479524919794651,0.959350221334602,0,0,0,1.0003004268644,1.50851553470943e-14,1.50782164531904e-14,0.131767222727765,0,0,0,0.0315726997546685,0.00844314311885259
48,-0.47760721015162,-0.47760721015161,0.955511445027436,0,0,0,1.00029706884042,-1.53141388459233e-14,-1.53210777398272e-14,0.130294393407084,0,0,0,0.0312390898646439,0.00824330326770132
48.2,-0.475682086391414,-0.475682086391406,0.951657875711446,0,0,0,1.00029374606355,-1.99146255042137e-15,-1.99146255042137e-15,0.128837023474852,0,0,0,0.0309069649809464,0.00804700185929848
48.4,-0.473749491719265,-0.473749491719258,0.947789398933526,0,0,0,1.00029045766967,-3.58046925441613e-15,-3.58740814832004e-15,0.127394733915544,0,0,0,0.0305763265637245,0.0078541480332233
48.6,-0.471809368659272,-0.471809368659266,0.943905898907129,0,0,0,1.00028720282343,1.32532873564628e-14,1.32116539930394e-14,0.125967158354998,0,0,0,0.0302471760932867,0.00766465503130082
48.8,-0.469861659045028,-0.469861659045022,0.940007258491471,0,0,0,1.00028398071631,2.28289609438548e-14,2.28289609438548e-14,0.124553942174872,0,0,0,0.0299195150705779,0.0074784399865044
49,-0.467906304009957,-0.467906304009951,0.936093359170335,0,0,0,1.00028079056472,4.63518112781003e-15,4.62824223390612e-15,0.123154741685779,0,0,0,0.0295933450176673,0.00729542372724475
49.2,-0.465943243977389,-0.465943243977383,0.932164081030445,0,0,0,1.0002776316082,-8.88178419700125e-15,-8.87484530309735e-15,0.121769223354708,0,0,0,0.0292686674782514,0.00711553059584262
49.4,-0.463972418650358,-0.463972418650352,0.928219302739429,0,0,0,1.0002745031078,1.82562298611799e-14,1.82701076489877e-14,0.120397063082882,0,0,0,0.0289454840181698,0.00693868828009113
49.6,-0.46199376700113,-0.461993767001124,0.924258901523332,0,0,0,1.00027140434458,-4.81559236931162e-15,-4.82253126321552e-15,0.119037945530731,0,0,0,0.0286237962259365,0.00676482765691094
49.8,-0.460007227260459,-0.460007227260453,0.920282753143693,0,0,0,1.00026833461807,1.22957199977236e-14,1.22957199977236e-14,0.117691563487459,0,0,0,0.0283036057132865,0.00659388264718811
50,-0.458012736906568,-0.458012736906562,0.916290731874155,0,0,0,1.00026529324506,-2.50424680992012e-14,-2.50424680992012e-14,0.116357617281406,0,0,0,0.0279849141157384,0.00642579008096395
50.2,-0.456010232653842,-0.456010232653836,0.912282710476616,0,0,0,1.00026227955821,1.99285032920216e-14,1.99285032920216e-14,0.115035814230238,0,0,0,0.0276677230931741,0.00626048957221492
50.4,-0.453999650441253,-0.453999650441247,0.908258560176891,0,0,0,1.00025929290499,8.39606162372775e-16,8.39606162372775e-16,0.113725868127076,0,0,0,0.0273520343304358,0.00609792340252501
50.6,-0.451980925420487,-0.451980925420481,0.904218150639886,0,0,0,1.00025633264652,-1.22818422099158e-14,-1.22749033160119e-14,0.11242749876259,0,0,0,0.0270378495379419,0.00593803641300875
50.8,-0.44995399194379,-0.449953991943783,0.900161349944271,0,0,0,1.00025339815659,1.86864412832222e-14,1.87072579649339e-14,0.111140431479548,0,0,0,0.0267251704523212,0.00578077590389468
51,-0.447918783551514,-0.447918783551508,0.896088024556636,0,0,0,1.0002504888207,4.04329347780674e-14,4.04398736719713e-14,0.109864396759232,0,0,0,0.0264139988370688,0.00562609154122466
51.2,-0.445875232959368,-0.445875232959363,0.89199803930511,0,0,0,1.0002476040352,8.79157857625046e-15,8.74994521282701e-15,0.108599129838298,0,0,0,0.026104336483221,0.00547393527016605
51.4,-0.443823272045367,-0.44382327204536,0.887891257352457,0,0,0,1.00024474320646,5.086209231564e-15,5.086209231564e-15,0.107344370354737,0,0,0,0.0257961852100538,0.00532426123447077
51.6,-0.441762831836458,-0.441762831836452,0.883767540168595,0,0,0,1.00024190575016,1.73958070170954e-14,1.74096848049032e-14,0.10609986202147,0,0,0,0.0254895468658032,0.00517702570164899
51.8,-0.439693842494856,-0.43969384249485,0.879626747502564,0,0,0,1.00023909109058,8.60422844084496e-16,8.60422844084496e-16,0.104865352327247,0,0,0,0.02518442332841,0.00503218699345564
52,-0.437616233304032,-0.437616233304026,0.8754687373539,0,0,0,1.00023629865997,-1.44259604262231e-14,-1.44398382140309e-14,0.103640592263744,0,0,0,0.0248808165062891,0.00488970542131507
52.2,-0.435529932654393,-0.435529932654387,0.871293365943419,0,0,0,1.00023352789803,4.64905891561784e-16,4.64905891561784e-16,0.102425336077854,0,0,0,0.0245787283391252,0.00474954322633358
52.4,-0.433434868028614,-0.433434868028608,0.867100487683383,0,0,0,1.00023077825137,4.13766243489988e-14,4.13766243489988e-14,0.10121934104874,0,0,0,0.0242781607986956,0.00461166452357281
52.6,-0.43133096598664,-0.431330965986634,0.86288995514704,0,0,0,1.00022804917303,-3.8372083288607e-15,-3.8372083288607e-15,0.100022367288915,0,0,0,0.0239791158897207,0.00447603525027581
52.8,-0.42921815215033,-0.429218152150324,0.858661619037519,0,0,0,1.00022534012214,3.49720252756924e-15,3.49720252756924e-15,0.0988341775692992,0,0,0,0.0236815956507455,0.00434262311775666
53,-0.427096351187749,-0.427096351187742,0.854415328156068,0,0,0,1.00022265056353,-1.53627111032506e-14,-1.53627111032506e-14,0.0976545371664762,0,0,0,0.0233856021550505,0.00421139756668086
53.2,-0.424965486797095,-0.424965486797088,0.85015092936961,0,0,0,1.00021997996747,-3.67761376907083e-15,-3.68455266297474e-15,0.0964832137333363,0,0,0,0.0230911375115958,0.00408232972547825
53.4,-0.422825481690254,-0.422825481690248,0.845868267577609,0,0,0,1.00021732780937,2.2586099657218e-14,2.25722218694102e-14,0.0953199771912946,0,0,0,0.0227982038659985,0.00395539237164404
53.6,-0.420676257575975,-0.420676257575969,0.841567185678219,0,0,0,1.00021469356964,-4.08145739427823e-14,-4.08145739427823e-14,0.0941645996444246,0,0,0,0.0225068034015454,0.00383055989569588
53.8,-0.418517735142647,-0.418517735142641,0.837247524533702,0,0,0,1.0002120767335,-1.24796006861772e-14,-1.24830701331291e-14,0.0930168553153111,0,0,0,0.0222169383402415,0.00370780826756571
54,-0.416349834040691,-0.416349834040685,0.832909122935104,0,0,0,1.00020947679093,6.60929644347164e-15,6.60582699651968e-15,0.0918765205008997,0,0,0,0.0219286109438982,0.00358711500521603
54.2,-0.41417247286453,-0.414172472864525,0.828551817566148,0,0,0,1.00020689323655,8.27463098040937e-15,8.23993651088983e-15,0.0907433735498342,0,0,0,0.0216418235152601,0.00346845914527858
54.4,-0.411985569134153,-0.411985569134147,0.824175442966349,0,0,0,1.00020432556968,2.93515212135276e-15,2.93515212135276e-15,0.0896171948594886,0,0,0,0.0213565783991737,0.00335182121552322
54.6,-0.409789039276241,-0.409789039276235,0.819779831493312,0,0,0,1.00020177329433,2.6027791033556e-14,2.60173826927002e-14,0.088497766892803,0,0,0,0.0210728779837995,0.00323718320897207
54.8,-0.40758279860486,-0.407582798604854,0.815364813284195,0,0,0,1.00019923591932,1.56472057533108e-14,1.56437363063588e-14,0.087384874214269,0,0,0,0.0207907247018695,0.00312452855948141
55,-0.405366761301706,-0.4053667613017,0.810930216216329,0,0,0,1.00019671295838,1.22540866343002e-14,1.22540866343002e-14,0.0862783035450426,0,0,0,0.0205101210319915,0.00301384211862154
55.2,-0.403140840395891,-0.403140840395885,0.806475865866948,0,0,0,1.00019420393031,-2.53616572187809e-14,-2.53651266657329e-14,0.0851778438359643,0,0,0,0.0202310695000027,0.00290511013369036
55.4,-0.400904947743251,-0.400904947743245,0.802001585472027,0,0,0,1.00019170835923,-1.87350135405495e-14,-1.87176663057897e-14,0.0840832863587014,0,0,0,0.0199535726803746,0.00279832022670402
55.6,-0.398658994005182,-0.398658994005176,0.797507195884188,0,0,0,1.00018922577477,1.26496035868229e-14,1.26496035868229e-14,0.0829944248136034,0,0,0,0.0196776331976711,0.00269346137421304
55.8,-0.396402888626978,-0.396402888626971,0.792992515529661,0,0,0,1.00018675571239,2.04662675695744e-14,2.05009620390939e-14,0.0819110554543186,0,0,0,0.0194032537280625,0.00259052388779885
56,-0.394136539815658,-0.394136539815651,0.78845736036427,0,0,0,1.0001842977137,-2.87304902091279e-14,-2.87270207621759e-14,0.0808329772281417,0,0,0,0.0191304370008973,0.00248949939511164
56.2,-0.391859854517285,-0.391859854517279,0.783901543828409,0,0,0,1.00018185132679,2.67355582117546e-14,2.67390276587065e-14,0.0797599919314746,0,0,0,0.0188591858003345,0.00239038082131567
56.4,-0.389572738393747,-0.389572738393741,0.779324876800998,0,0,0,1.00017941610665,-2.56461518688411e-14,-2.56392129749372e-14,0.0786919043786691,0,0,0,0.018589502967039,0.002293162370815
56.6,-0.38727509579899,-0.387275095798984,0.774727167552368,0,0,0,1.00017699161556,3.25017790459015e-14,3.24879012580936e-14,0.077628522585455,0,0,0,0.0183213913999425,0.00219783950913736
56.8,-0.384966829754705,-0.384966829754698,0.770108221696074,0,0,0,1.00017457742354,-1.73611125475759e-14,-1.735070420672e-14,0.0765696579629213,0,0,0,0.0180548540580725,0.00210440894486109
57,-0.382647841925428,-0.382647841925421,0.765467842139571,0,0,0,1.00017217310881,3.61516372393567e-15,3.62904151174348e-15,0.0755151255243572,0,0,0,0.0177898939624529,0.00201286861147539
57.2,-0.38031803259307,-0.380318032593064,0.76080582903376,0,0,0,1.00016977825832,-1.61051727509687e-14,-1.61017033040167e-14,0.0744647441005901,0,0,0,0.0175265141980783,0.00192321764907088
57.4,-0.377977300630833,-0.377977300630827,0.756121979721334,0,0,0,1.00016739246823,2.32106001085697e-14,2.32071306616177e-14,0.0734183365653145,0,0,0,0.0172647179159656,0.00183545638576409
57.6,-0.375625543476516,-0.375625543476509,0.751416088683921,0,0,0,1.00016501534443,2.24924245895153e-14,2.2513241271227e-14,0.0723757300670151,0,0,0,0.0170045083352857,0.0017495863187662
57.8,-0.373262657105186,-0.37326265710518,0.746687947487975,0,0,0,1.00016264650312,-1.15706055847653e-14,-1.15740750317173e-14,0.0713367562677397,0,0,0,0.0167458887455791,0.00166561009501336
58,-0.370888536001206,-0.3708885360012,0.741937344729377,0,0,0,1.00016028557133,-2.42791897697714e-14,-2.43000064514831e-14,0.0703012515861993,0,0,0,0.0164888625090581,0.00158353149128374
58.2,-0.368503073129593,-0.368503073129586,0.73716406597672,0,0,0,1.00015793218751,1.18689780226333e-14,1.18967335982489e-14,0.0692690574440201,0,0,0,0.0162334330629994,0.00150335539373357
58.4,-0.366106159906698,-0.366106159906692,0.732367893713227,0,0,0,1.00015558600208,1.47902523561783e-14,1.47867829092263e-14,0.068240020513568,0,0,0,0.0159796039222311,0.00142508777679291
58.6,-0.363697686170184,-0.363697686170178,0.727548607277278,0,0,0,1.00015324667799,-4.73579508941668e-15,-4.72885619551278e-15,0.0672139929659823,0,0,0,0.0157273786817168,0.00134873568136996
58.8,-0.361277540148284,-0.361277540148278,0.72270598280149,0,0,0,1.00015091389128,1.39992184511328e-14,1.39957490041809e-14,0.0661908327171681,0,0,0,0.0154767610192427,0.00127430719232136
59,-0.358845608428329,-0.358845608428323,0.717839793150317,0,0,0,1.00014858733167,-2.32106001085697e-15,-2.31759056390501e-15,0.0651704036700782,0,0,0,0.0152277546982089,0.00120181141515513
59.2,-0.356401775924513,-0.356401775924506,0.712949807856125,0,0,0,1.00014626670304,-8.40300051763165e-15,-8.3995310706797e-15,0.064152575952031,0,0,0,0.0149803635705313,0.00113125845194201
59.4,-0.353945925844881,-0.353945925844875,0.708035793053696,0,0,0,1.000143951724,1.16955056750356e-14,1.16989751219876e-14,0.0631372261443567,0,0,0,0.0147345915796581,0.00106265937642053
59.6,-0.351477939657525,-0.351477939657518,0.703097511413114,0,0,0,1.00014164212837,-2.85847734371458e-14,-2.85882428840978e-14,0.062124237502935,0,0,0,0.0144904427637039,0.000996026208291205
59.8,-0.34899769705595,-0.348997697055944,0.698134722070984,0,0,0,1.00013933766568,3.86010667874359e-14,3.86010667874359e-14,0.0611135001680353,0,0,0,0.0142479212587074,0.000931371886705634
60,-0.346505075923609,-0.346505075923603,0.693147180559945,0,0,0,1.0001370381016,-2.67147415300428e-16,-2.70616862252382e-16,0.0601049113600738,0,0,0,0.0140070313020174,0.00086871024296638
60.2,-0.343999952297562,-0.343999952297556,0.688134638736401,0,0,0,1.00013474321833,-1.95884974907301e-14,-1.95919669376821e-14,0.0590983755616526,0,0,0,0.0137677772358108,0.000808055972464871
60.4,-0.341482200331249,-0.341482200331243,0.683096844706444,0,0,0,1.00013245281505,2.12330153459561e-15,2.11983208764366e-15,0.0580938046813783,0,0,0,0.0135301635107486,0.000749424605895336
60.6,-0.338951692256347,-0.338951692256341,0.678033542749897,0,0,0,1.00013016670816,1.09565134742695e-14,1.09634523681734e-14,0.0570911181991079,0,0,0,0.0132941946897748,0.000692832479794623
60.8,-0.336408298343682,-0.336408298343675,0.672944473242426,0,0,0,1.00012788473162,-2.88311041707345e-15,-2.8796409701215e-15,0.0560902432902705,0,0,0,0.013059875452064,0.000638296706469062
61,-0.333851886863174,-0.333851886863167,0.667829372575655,0,0,0,1.00012560673718,1.19834697720478e-14,1.19834697720478e-14,0.055091114927117,0,0,0,0.0128272105971216,0.00058583514338196
61.2,-0.331282324042783,-0.331282324042777,0.662687973075237,0,0,0,1.00012333259452,1.0842021724855e-14,1.08350828309511e-14,0.054093675954901,0,0,0,0.012596205049044,0.000535466362087904
61.4,-0.328699474026426,-0.328699474026419,0.657520002916794,0,0,0,1.00012106219139,-1.04985464766116e-14,-1.04916075827077e-14,0.0530978771415656,0,0,0,0.012366863860944,0.00048720961681268
61.6,-0.326103198830833,-0.326103198830827,0.65232518603969,0,0,0,1.00011879543365,-3.90520948911899e-14,-3.90798504668055e-14,0.0521036771986315,0,0,0,0.0121391922195467,0.000441084812791084
61.8,-0.323493358301319,-0.323493358301313,0.647103242058539,0,0,0,1.00011653224526,5.02965724624715e-14,5.02965724624715e-14,0.0511110427717551,0,0,0,0.0119131954499625,0.000397112474489334
62,-0.320869810066423,-0.320869810066416,0.641853886172395,0,0,0,1.00011427256817,-1.61329283265843e-15,-1.60635393875452e-15,0.0501199483984808,0,0,0,0.0116888790206438,0.000355313713853391
62.2,-0.318232409491392,-0.318232409491386,0.636576829071551,0,0,0,1.00011201636214,-1.92103277729672e-14,-1.92033888790633e-14,0.0491303764333664,0,0,0,0.0114662485485306,0.000315710198740411
62.4,-0.315581009630471,-0.315581009630465,0.631271776841858,0,0,0,1.00010976360451,-3.24046345312468e-15,-3.24740234702858e-15,0.0481423169360397,0,0,0,0.0112453098043931,0.000278324121708589
62.6,-0.312915461177956,-0.312915461177949,0.625938430866495,0,0,0,1.00010751428984,-4.92730856116452e-14,-4.92418605890776e-14,0.0471557675226148,0,0,0,0.011026068718376,0.000243178169359292
62.8,-0.310235612417975,-0.310235612417968,0.62057648772511,0,0,0,1.0001052684295,-7.04297731246584e-15,-7.03950786551388e-15,0.046170733178317,0,0,0,0.0108085313857537,0.000210295492448519
63,-0.307541309172961,-0.307541309172955,0.615185639090233,0,0,0,1.00010302605114,7.96238075473354e-16,8.03176969377262e-16,0.0451872260283899,0,0,0,0.010592704072901,0.000179699677010256
63.2,-0.304832394750767,-0.304832394750761,0.609765571620894,0,0,0,1.00010078719806,1.59247615094671e-15,1.58033308661487e-15,0.0442052650670937,0,0,0,0.0103785932234876,0.000151414716766837
63.4,-0.302108709890378,-0.302108709890372,0.60431596685333,0,0,0,1.0000985519285,9.80986125664884e-15,9.8133307036008e-15,0.0432248758409331,0,0,0,0.0101662054649036,0.000125464987141686
63.6,-0.299370092706193,-0.299370092706186,0.598836501088704,0,0,0,1.00009632031483,-3.02431690801797e-14,-3.02396996332277e-14,0.042246090083856,0,0,0,0.00995554761492321,0.000101875221243687
63.8,-0.296616378630806,-0.296616378630799,0.593326845277734,0,0,0,1.00009409244255,-2.39305103511001e-14,-2.39201020102442e-14,0.0412689453005729,0,0,0,0.00974662668861333,8.06704882662916e-05
64,-0.293847400356266,-0.29384740035626,0.587786664902119,0,0,0,1.00009186840924,-3.90052573573385e-14,-3.89983184634346e-14,0.0402934842912437,0,0,0,0.00953944990549588,6.18761748526838e-05
64.2,-0.291062987773759,-0.291062987773753,0.582215619852664,0,0,0,1.00008964832332,2.27162039179163e-14,2.27092650240124e-14,0.039319754609242,0,0,0,0.00933402469697065,4.55179701427156e-05
64.4,-0.288262967911674,-0.288262967911668,0.576613364303994,0,0,0,1.00008743230263,5.68295410730002e-15,5.69336244815588e-15,0.0383478079343235,0,0,0,0.00913035871400683,3.16218554874099e-05
64.6,-0.285447164872045,-0.285447164872038,0.570979546585738,0,0,0,1.00008522047271,1.3987075386801e-14,1.39471767468535e-14,0.0373776993323219,0,0,0,0.00892845983511163,2.02141002903854e-05
64.8,-0.282615399765356,-0.282615399765348,0.56531380905006,0,0,0,1.00008301296474,6.53296861052866e-15,6.5294991635767e-15,0.0364094863355368,0,0,0,0.00872833617458458,1.13212663539222e-05
65,-0.279767490643862,-0.279767490643855,0.559615787935423,0,0,0,1.00008080991265,4.55191440096314e-15,4.51201576101568e-15,0.0354432276885359,0,0,0,0.00852999609106851,4.97022514165458e-06
65.2,-0.276903252433895,-0.276903252433888,0.553885113226438,0,0,0,1.00007861144837,-2.00013616780126e-15,-1.99840144432528e-15,0.0344789812562364,0,0,0,0.00833344819641368,1.18819794295183e-06
65.4,-0.27402249687103,-0.274022496871023,0.548121408509687,0,0,0,1.00007641768732,-1.73194791841524e-14,-1.73142750137245e-14,0.0335167976571387,0,0,0,0.00813870136492668,2.85347880216815e-09
65.6,-0.271125032393663,-0.271125032393657,0.542324290825362,0,0,0,1.00007422879286,7.11583569845686e-15,7.11583569845686e-15,0.0325567485495059,0,0,0,0.00794576474228946,1.44240134278736e-06
65.8,-0.268210664036447,-0.268210664036441,0.536493370514568,0,0,0,1.0000720450368,7.03430369508595e-15,7.03603841856193e-15,0.0315989531405269,0,0,0,0.00775464775484897,5.53469776181481e-06
66,-0.26527919341738,-0.265279193417374,0.53062825106217,0,0,0,1.00006986666798,9.71271674199414e-15,9.70924729504219e-15,0.0306435205756827,0,0,0,0.00756536012078787,1.23068695928321e-05
66.2,-0.262330418653131,-0.262330418653126,0.524728528934982,0,0,0,1.00006769391986,4.25874613352306e-15,4.26395030395099e-15,0.0296905532484698,0,0,0,0.00737791186049122,2.17854868827308e-05
66.4,-0.25936413427396,-0.259364134273955,0.518793793415167,0,0,0,1.00006552701405,1.37494182705922e-14,1.37442141001642e-14,0.0287401483639307,0,0,0,0.00719231330729142,3.39966502696512e-05
66.6,-0.25638013113778,-0.256380131137774,0.512823626428664,0,0,0,1.00006336616066,-2.95510144132649e-14,-2.95527491367409e-14,0.0277923980653136,0,0,0,0.00700857511859199,4.89660511837632e-05
66.8,-0.253378196342186,-0.253378196342181,0.506817602368452,0,0,0,1.00006121155744,5.69509717163186e-15,5.68815827772795e-15,0.0268473890916581,0,0,0,0.0068267082873589,6.67190228500349e-05
67,-0.250358113134051,-0.250358113134047,0.500775287912489,0,0,0,1.00005906338856,-2.65412691824451e-14,-2.65898414397725e-14,0.0259052022242168,0,0,0,0.00664672415398185,8.72805887578958e-05
67.2,-0.247319660816484,-0.247319660816479,0.494696241836107,0,0,0,1.00005692182313,1.16417292472804e-14,1.16417292472804e-14,0.0249659116248417,0,0,0,0.00646863441851007,0.000110675511826861
67.4,-0.244262614652974,-0.244262614652968,0.488580014818671,0,0,0,1.00005478701348,1.31318567131444e-14,1.31283872661925e-14,0.0240295841133467,0,0,0,0.00629245115326841,0.000136928346086359
67.6,-0.241186745768615,-0.241186745768609,0.482426149244293,0,0,0,1.00005265909351,-1.73385611423882e-15,-1.7425297316187e-15,0.0230962784136546,0,0,0,0.00611818681585963,0.000166063491998556
67.8,-0.238091821048248,-0.238091821048242,0.476234178996372,0,0,0,1.00005053817689,3.15979881149175e-14,3.15927839444896e-14,0.0221660443851775,0,0,0,0.00594585426255853,0.000198105256173477
68,-0.234977603031411,-0.234977603031406,0.470003629245735,0,0,0,1.00004842435534,-3.95950633391706e-15,-3.98292510084275e-15,0.0212389222523384,0,0,0,0.00577546676210359,0.000233077915996106
68.2,-0.231843849803959,-0.231843849803953,0.46373401623214,0,0,0,1.00004631769686,-2.8568293564124e-14,-2.8572630372814e-14,0.0203149418426237,0,0,0,0.0056070380098913,0.000271005789535097
68.4,-0.228690314886215,-0.228690314886209,0.457424847038875,0,0,0,1.00004421824405,7.05165092984572e-16,7.45931094670027e-16,0.0193941218397873,0,0,0,0.00544058214257836,0.000311913310998185
68.6,-0.225516747117525,-0.22551674711752,0.451075619360217,0,0,0,1.00004212601245,-1.85363877025502e-14,-1.85337856173362e-14,0.0184764690595918,0,0,0,0.00527611375309637,0.000355825111922698
68.8,-0.222322890537059,-0.222322890537054,0.444685821261446,0,0,0,1.00004004098895,-1.12696310616833e-14,-1.12687636999453e-14,0.017561977754197,0,0,0,0.00511364790608326,0.000402766108229572
69,-0.21910848426072,-0.219108484260717,0.438254930931155,0,0,0,1.0000379631303,-7.39772826330309e-15,-7.57727214306669e-15,0.0166506289493128,0,0,0,0.00495320015373593,0.000452761593221916
69.2,-0.215873262354004,-0.215873262353999,0.431782416425538,0,0,0,1.00003589236165,-4.18328566231807e-15,-4.18241830058008e-15,0.015742389819758,0,0,0,0.004794786552087,0.000505837336569332
69.4,-0.212616953700634,-0.212616953700628,0.425267735404344,0,0,0,1.00003382857526,-8.87744738831131e-15,-8.87484530309735e-15,0.0148372131069686,0,0,0,0.00463842367770962,0.00056201968928534
69.6,-0.209339281866831,-0.209339281866827,0.418710334858185,0,0,0,1.00003177162923,-6.05505229289705e-15,-6.05678701637302e-15,0.013935036582415,0,0,0,0.00448412864485301,0.000621335694676899
69.8,-0.206039964961021,-0.206039964961017,0.412109650826833,0,0,0,1.00002972134647,-2.99473987275256e-14,-2.99387251101457e-14,0.0130357825600254,0,0,0,0.00433191912301103,0.000683813205218647
70,-0.202718715488797,-0.202718715488793,0.405465108108164,0,0,0,1.00002767751359,1.42507533551495e-15,1.42507533551495e-15,0.012139357460818,0,0,0,0.0041818133549266,0.000749481005283604
70.2,-0.199375240202962,-0.199375240202957,0.398776119957368,0,0,0,1.00002563988014,9.45164085885963e-15,9.45250822059762e-15,0.0112456514314957,0,0,0,0.00403383017503332,0.000818368939641694
70.4,-0.196009239948438,-0.196009239948433,0.392042087776023,0,0,0,1.00002360815782,-1.07127848258948e-14,-1.07132185067638e-14,0.0103545380199654,0,0,0,0.00388798902833612,0.000890508047621042
70.6,-0.192620409501841,-0.192620409501837,0.385262400790645,0,0,0,1.00002158201986,3.74765322941339e-14,3.7474797570658e-14,0.00946587390863184,0,0,0,0.00374430998973259,0.000965930702812991
70.8,-0.189208437405502,-0.189208437405497,0.378436435720245,0,0,0,1.00001956110056,-6.93282237174131e-15,-6.9258834778374e-15,0.00857949870641162,0,0,0,0.00360281378377578,0.00104467075818932
71,-0.185773005795706,-0.185773005795701,0.371563556432483,0,0,0,1.00001754499499,2.72867665962462e-14,2.7297174937102e-14,0.0076952348014705,0,0,0,0.00346352180488014,0.00112676369649076
71.2,-0.182313790224919,-0.182313790224915,0.364643113587909,0,0,0,1.00001553325872,2.68752034515707e-15,2.64848906694759e-15,0.00681288727271276,0,0,0,0.0033264561379712,0.00121224678573877
71.4,-0.178830459477743,-0.178830459477738,0.357674444271816,0,0,0,1.0000135254078,-6.95754218127398e-15,-6.95147064910806e-15,0.00593224386215407,0,0,0,0.00319163957958072,0.00130115923971773
71.6,-0.175322675380347,-0.175322675380343,0.350656871613169,0,0,0,1.00001152091885,-3.14008801599597e-14,-3.14000127982217e-14,0.00505307500544983,0,0,0,0.00305909565938833,0.00139354238327229
71.8,-0.1717900926031,-0.171790092603099,0.343589704390077,0,0,0,1.00000951922919,2.13054400510782e-14,2.10625787644414e-14,0.00417513392074986,0,0,0,0.00292884866221174,0.00148943982226507
72,-0.168232358456126,-0.168232358456121,0.336472236621213,0,0,0,1.00000751973724,8.96418356211015e-16,8.92081547521073e-16,0.00329815675307381,0,0,0,0.00280092365044781,0.00158889761804284
72.2,-0.16464911267745,-0.164649112677446,0.3293037471426,0,0,0,1.00000552180295,-6.51410349272741e-15,-6.51670557794137e-15,0.00242186277349024,0,0,0,0.00267534648696727,0.00169196446626471
72.4,-0.161039987213487,-0.161039987213482,0.322083499169113,0,0,0,1.00000352474836,-2.47179663889763e-14,-2.47214358359282e-14,0.00154595462882973,0,0,0,0.00255214385846729,0.00179869187995481
72.6,-0.157404605991464,-0.15740460599146,0.314810739840034,0,0,0,1.00000152785828,-9.31096562697964e-15,-9.31443507393159e-15,0.000670118640216142,0,0,0,0.00243134329928689,0.00190913437665329
72.8,-0.153742584683493,-0.153742584683488,0.307484699747961,0,0,0,0.99999953038109,6.06928244641092e-15,6.04499631774724e-15,-0.00020597485393011,0,0,0,0.00231297321569165,0.00202334966955351
73,-0.15005353046189,-0.150053530461886,0.300104592450338,0,0,0,0.999997531529608,1.64522258663813e-15,1.56108849805325e-15,-0.00108267111377991,0,0,0,0.002197062910636,0.00214139886253154
73.2,-0.146337041745387,-0.146337041745382,0.29266961396282,0,0,0,0.999995530482039,-7.83086703121105e-15,-7.82566286078312e-15,-0.00196033057751481,0,0,0,0.00208364260901345,0.00226334664899444
73.4,-0.142592707935802,-0.142592707935798,0.285178942233662,0,0,0,0.999993526383017,6.59856284196403e-15,6.5933586715361e-15,-0.00283932840896363,0,0,0,0.0019727434834073,0.00238926151449839
73.6,-0.138820109144781,-0.138820109144777,0.27763173659828,0,0,0,0.999991518344691,2.92769281040606e-14,2.92786628275366e-14,-0.00372005401852778,0,0,0,0.0018643976803577,0.00251921594311397
73.8,-0.13501881591013,-0.135018815910125,0.27002713721306,0,0,0,0.999989505447873,-1.33948841601894e-14,-1.34000883306173e-14,-0.00460291056272179,0,0,0,0.00175863834716346,0.00265328662754847
74,-0.131188388901288,-0.131188388901284,0.262364264467491,0,0,0,0.999987486743211,9.70057367766231e-15,9.69797159244834e-15,-0.00548831442780804,0,0,0,0.00165549965924175,0.00279155468306742
74.2,-0.127328378613444,-0.127328378613441,0.254642218373581,0,0,0,0.999985461252384,1.39987847702638e-14,1.39077117877751e-14,-0.00637669470446868,0,0,0,0.00155501684807231,0.00293410586529675
74.4,-0.123438325049766,-0.123438325049762,0.246860077931525,0,0,0,0.999983427969315,-1.34397701301303e-14,-1.34458416622962e-14,-0.00726849265834221,0,0,0,0.00145722622975805,0.00308103079202697
74.6,-0.119517757391191,-0.119517757391186,0.2390169004705,0,0,0,0.999981385861368,-1.10488874993653e-14,-1.10055194124659e-14,-0.008164161203837,0,0,0,0.00136216523423964,0.00323242516918589
74.8,-0.115566193653207,-0.115566193653202,0.231111720963387,0,0,0,0.999979333870525,7.63495169864292e-15,7.62844648560801e-15,-0.0090641643876723,0,0,0,0.00126987243520747,0.00338839002119421
75,-0.111583140328998,-0.111583140328994,0.22314355131421,0,0,0,0.999977270914527,5.11353112631063e-15,5.12003633934555e-15,-0.00996897688849968,0,0,0,0.00118038758076182,0.00354903192596937
75.2,-0.107568092018307,-0.107568092018303,0.215111379616945,0,0,0,0.999975195887963,1.60245081093358e-15,1.59074142747073e-15,-0.0108790835395688,0,0,0,0.00109375162487927,0.00371446325489807
75.4,-0.103520531041323,-0.103520531041319,0.207014169384326,0,0,0,0.999973107663289,-1.85181731060524e-14,-1.85068974034586e-14,-0.0117949788814775,0,0,0,0.00101000675975265,0.00388480241815529
75.6,-0.0994399270368821,-0.0994399270368778,0.198850858745165,0,0,0,0.999971005091766,-8.9303564543286e-15,-8.92515228390067e-15,-0.0127171667514843,0,0,0,0.000929196449080785,0.00406017411580894
75.8,-0.0953257365441896,-0.0953257365441853,0.19062035960865,0,0,0,0.999968887004294,2.07646400074424e-15,2.08166817117217e-15,-0.0136461599166147,0,0,0,0.000851365462394958,0.00424070959521301
76,-0.0911774025672711,-0.0911774025672668,0.182321556793955,0,0,0,0.999966752212137,-1.52959242494255e-14,-1.52915874407356e-14,-0.0145824797568565,0,0,0,0.00077655991052081,0.00442654691525907
76.2,-0.0869943541212712,-0.0869943541212669,0.173953307123438,0,0,0,0.999964599507512,-1.85207751912664e-14,-1.85216425530044e-14,-0.0155266560052788,0,0,0,0.000704827282286454,0.00461783121812608
76.4,-0.0827760057596973,-0.082776005759693,0.165514438477573,0,0,0,0.999962427664041,-1.05219652435373e-14,-1.05132916261574e-14,-0.016479226551753,0,0,0,0.000636216482601832,0.00481471500923991
76.6,-0.0785217570816324,-0.0785217570816281,0.157003748809665,0,0,0,0.999960235437035,1.76351988567802e-14,1.76438724741601e-14,-0.0174407373162189,0,0,0,0.00057077787204901,0.00501735844623047
76.8,-0.0742309922178904,-0.0742309922178861,0.148420005118273,0,0,0,0.999958021563616,-1.61728269665318e-14,-1.61754290517457e-14,-0.0184117421979337,0,0,0,0.000508563308139617,0.00522592963775001
77,-0.0699030792950227,-0.0699030792950184,0.139761942375159,0,0,0,0.99995578476264,-1.92320118164169e-14,-1.92372159868448e-14,-0.0193928031060484,0,0,0,0.000449626188412918,0.00544060495309697
77.2,-0.0655373698760128,-0.065537369876014,0.131028262406404,0,0,0,0.999953523734432,-7.90513488002631e-15,-8.45590958364895e-15,-0.0203844900780483,0,0,0,0.000394021495567447,0.00566156934367166
77.4,-0.0611331983764474,-0.061133198376443,0.122217632724249,0,0,0,0.999951237160304,9.96945581643871e-15,9.97726207208061e-15,-0.0213873814904486,0,0,0,0.000341805844839263,0.00588901667737321
77.6,-0.056689881454792,-0.0566898814547969,0.113328685307003,0,0,0,0.999948923701853,2.12815876032835e-14,2.12789855180695e-14,-0.0224020643673369,0,0,0,0.000293037533862256,0.00612315008713405
77.8,-0.0522067173755062,-0.0522067173755091,0.104360015324243,0,0,0,0.99994658200002,1.01255809292766e-14,1.01203767588487e-14,-0.0234291347913646,0,0,0,0.000247776595269444,0.00636418233487626
78,-0.047682985343346,-0.0476829853433479,0.0953101798043247,0,0,0,0.999944210673913,-2.55750282063261e-14,-2.55750282063261e-14,-0.0244691984216424,0,0,0,0.000206084852319832,0.0066123361922619
78.2,-0.0431179448074385,-0.0431179448074415,0.0861776962410522,0,0,0,0.999941808319374,1.84227633148737e-15,1.84574577843932e-15,-0.0255228711226339,0,0,0,0.000168025977862343,0.00686784483970431
78.4,-0.038510834733354,-0.038510834733357,0.076961041136128,0,0,0,0.999939373507277,-3.55791784922843e-15,-3.54750950837257e-15,-0.0265907797082926,0,0,0,0.00013366555697773,0.00713095228519846
78.6,-0.0338608728414152,-0.0338608728414184,0.0676586484738151,0,0,0,0.999936904781569,-8.5712686948014e-15,-8.58861592956117e-15,-0.0276735628040423,0,0,0,0.000103071153670121,0.00740191380462395
78.8,-0.0291672548093417,-0.0291672548093449,0.0582689081239758,0,0,0,0.99993440065702,-1.07049785702529e-14,-1.06130382260261e-14,-0.0287718718309115,0,0,0,7.63123820132249e-05,0.00768099640527237
79,-0.0244291534371924,-0.024429153437198,0.0487901641694318,0,0,0,0.999931859616703,-1.74860126378462e-15,-1.73819292292876e-15,-0.0298863721141336,0,0,0,5.34609821913462e-05,0.00796847931444846
79.2,-0.0196457177724392,-0.0196457177724439,0.0392207131532811,0,0,0,0.999929280109167,5.88071258356138e-15,5.8789778600854e-15,-0.0310177441192018,0,0,0,3.45909019129318e-05,0.00826465449509615
79.4,-0.014816072192834,-0.0148160721928481,0.029558802241544,0,0,0,0.999926660545331,-3.67934849254681e-15,-3.66547070473899e-15,-0.0321666848177806,0,0,0,1.97783837144358e-05,0.0085698271905031
79.6,-0.00993931544465201,-0.00993931544466569,0.0198026272961799,0,0,0,0.999923999295062,1.57686363966292e-14,1.57616975027253e-14,-0.0333339091857729,0,0,0,9.10205871469492e-06,0.00888431650024121
79.8,-0.00501451963356187,-0.0050145196335757,0.00995033085316809,0,0,0,0.999921294683456,-4.63691585128601e-15,-4.63865057476198e-15,-0.0345201518359812,0,0,0,2.64304742542258e-06,0.00920845598960887
80,-4.07291654098681e-05,-4.07291654235244e-05,0,0,0,0,0.999918544986806,-1.52985263346395e-14,-1.53037305050674e-14,-0.0357261687867159,0,0,0,4.85068271437236e-07,0.00954259433494659
