t,LE11,LE22,LE33,LE12,LE13,LE23,J,S11,S22,S33,S12,S13,S23,psiE,psiNE
0,0,0,0,0,0,0,1,0,0,0,0,0,0,0,0
0.2,-0.00994479863266059,0.00995033085316809,0,0,0,0,1.00000553223581,1.77466548401117e-14,0.00162315228341262,0.000803286342987386,0,0,0,2.89568937963366e-06,5.17529342513747e-06
0.4,-0.0197916617713409,0.0198026272961797,0,0,0,0,1.00001096558496,1.38298660717906e-14,0.00322789102858625,0.00158161453507451,0,0,0,1.1469378938241e-05,2.04599235945593e-05
0.6,-0.0295425031967517,0.0295588022415444,0,0,0,0,1.00001629917762,1.46861689476196e-14,0.00481358098847278,0.00233523831692252,0,0,0,2.55563347503379e-05,4.54863700144857e-05
0.8,-0.0391991806437762,0.0392207131532813,0,0,0,0,1.00002153274133,5.88765147746528e-15,0.00637975561718315,0.0030645047307281,0,0,0,4.49986493882056e-05,7.98836785255267e-05
1,-0.048763498008019,0.048790164169432,0,0,0,0,1.00002666651696,2.45055711833864e-14,0.00792609677377169,0.00376983756414643,0,0,0,6.96449060868039e-05,0.000123280841770294
1.2,-0.0582372073951958,0.0582689081239758,0,0,0,0,1.00003170123125,-7.3448191972858e-15,0.00945243025870452,0.00445172976904424,0,0,0,9.93498662066793e-05,0.000175309320568138
1.4,-0.067622011067279,0.0676586484738149,0,0,0,0,1.00003663807769,-9.88185228090188e-15,0.0109587233726174,0.00511073750385723,0,0,0,0.000133974177864292,0.00023560512687343
1.6,-0.0769195633017363,0.0769610411361284,0,0,0,0,1.00004147869461,1.84661314017731e-14,0.0124450813265717,0.00574747412912107,0,0,0,0.000173384103765935,0.000303810597497531
1.8,-0.086131472171679,0.0861776962410524,0,0,0,0,1.00004622513772,1.2792718273591e-14,0.013911741665048,0.00636260373991074,0,0,0,0.000217451266468066,0.000379575906951706
2,-0.0952593012517682,0.0953101798043249,0,0,0,0,1.00005087984689,-2.59098298371896e-14,0.0153590666278867,0.00695683421902117,0,0,0,0.000266052409466618,0.000462560340002094
2.2,-0.104304571253411,0.104360015324243,0,0,0,0,1.00005544560788,-8.11677114409548e-15,0.0167875336776047,0.00753090993986677,0,0,0,0.00031906917268276,0.000552433335116126
2.4,-0.113268761592123,0.113328685307003,0,0,0,0,1.00005992551034,-1.66533453693773e-16,0.0181977245397747,0.00808560429601067,0,0,0,0.000376387881063494,0.000648875307857557
2.6,-0.122153311889585,0.122217632724249,0,0,0,0,1.00006432290329,9.32760813032729e-15,0.0195903131441862,0.00862171224023666,0,0,0,0.000437899345151224,0.000751578264131977
2.8,-0.130959623412708,0.131028262406404,0,0,0,0,1.00006864134941,3.16933979060963e-15,0.0209660528499518,0.00914004299950988,0,0,0,0.000503498672598739,0.000860246215085366
3,-0.139689060451944,0.139761942375159,0,0,0,0,1.00007288457917,2.34291752665428e-14,0.0223257633131411,0.00964141310923263,0,0,0,0.000573085089715503,0.00097459540751465
3.2,-0.14834295164101,0.148420005118273,0,0,0,0,1.00007705644596,-3.76608466634565e-15,0.0236703173162196,0.010126639881358,0,0,0,0.000646561772228535,0.00109435438543455
3.4,-0.156922591220155,0.157003748809665,0,0,0,0,1.00008116088288,-1.65839564303383e-15,0.0250006278353747,0.0105965353939028,0,0,0,0.000723835684528491,0.0012192638997738
3.6,-0.165429240245133,0.165514438477573,0,0,0,0,1.00008520186191,3.09127723419067e-15,0.0263176355738764,0.0110519010610981,0,0,0,0.000804817426748479,0.00134907668399328
3.8,-0.173864127743979,0.173953307123438,0,0,0,0,1.00008918335606,2.91919266537377e-14,0.0276222971459981,0.011493522821259,0,0,0,0.000889421089092204,0.00148355711374284
4,-0.182228451823732,0.182321556793955,0,0,0,0,1.00009310930462,1.10605968828281e-14,0.0289155740514871,0.0119221669569416,0,0,0,0.000977564112888614,0.00162248076855665
4.2,-0.190523380729201,0.19062035960865,0,0,0,0,1.00009698358205,3.19189119579733e-16,0.0301984225426007,0.0123385765456552,0,0,0,0.00106916715790475,0.00176563391309987
4.4,-0.19875005385585,0.198850858745165,0,0,0,0,1.0001008099703,1.74860126378462e-15,0.0314717844494746,0.0127434685237812,0,0,0,0.00116415397549588,0.00191281291469478
4.6,-0.206909582718871,0.207014169384326,0,0,0,0,1.00010459213483,6.08367523025066e-15,0.0327365790004918,0.0131375313364005,0,0,0,0.00126245128721506,0.00206382361284959
4.8,-0.215003051880447,0.215111379616945,0,0,0,0,1.00010833360416,1.79960213397834e-14,0.0339936956478225,0.013521423136572,0,0,0,0.00136398866854172,0.00221848065534976
5,-0.223031519837168,0.22314355131421,0,0,0,0,1.0001120377528,1.14179499188793e-14,0.0352439878871417,0.0138957704918513,0,0,0,0.00146869843742216,0.00237660681421262
5.2,-0.23099601986952,0.231111720963387,0,0,0,0,1.0001157077875,-1.90507332131773e-14,0.0364882680436381,0.0142611675523359,0,0,0,0.00157651554734481,0.00253803229349679
5.4,-0.238897560855286,0.2390169004705,0,0,0,0,1.00011934673647,2.05495342964213e-14,0.037727302982848,0.0146181756323693,0,0,0,0.00168737748469913,0.00270259403963995
5.6,-0.24673712804865,0.246860077931526,0,0,0,0,1.00012295744152,-7.38298311375729e-15,0.0389618106945144,0.0149673231572458,0,0,0,0.00180122417019034,0.00287013506370296
5.8,-0.254515683826699,0.254642218373581,0,0,0,0,1.00012654255272,5.78356806890667e-15,0.0401924576923243,0.0153091059286845,0,0,0,0.00191799786410289,0.00304050378364682
6,-0.262234168404982,0.262364264467491,0,0,0,0,1.00013010452537,1.31561428418081e-14,0.0414198571649902,0.015643987661641,0,0,0,0.00203764307522371,0.00321355339358108
6.2,-0.269893500523676,0.27002713721306,0,0,0,0,1.00013364561916,4.97171748214953e-15,0.0426445678149653,0.0159724007505851,0,0,0,0.00216010647325253,0.00338914126580602
6.4,-0.277494578105843,0.27763173659828,0,0,0,0,1.00013716789909,9.78730985146115e-15,0.0438670933182278,0.0162947472240079,0,0,0,0.00228533680454084,0.00356712839043528
6.6,-0.285038278889207,0.285178942233662,0,0,0,0,1.00014067323801,1.15740750317173e-14,0.0450878823402864,0.0166113998500274,0,0,0,0.0024132848110136,0.00374737885643167
6.8,-0.292525461032776,0.29266961396282,0,0,0,0,1.00014416332058,-9.36750677027476e-17,0.0463073290455949,0.0169227033594705,0,0,0,0.00254390315213921,0.00392975937701785
7,-0.299956963699581,0.300104592450338,0,0,0,0,1.00014763964842,1.71945790938821e-14,0.0475257740399688,0.0172289757559135,0,0,0,0.00267714632982276,0.0041141388616322
7.2,-0.307333607616726,0.307484699747961,0,0,0,0,1.00015110354623,1.03875241741491e-14,0.0487435056888996,0.0175305096855434,0,0,0,0.00281297061610667,0.00430038803588634
7.4,-0.314656195613883,0.314810739840034,0,0,0,0,1.00015455616873,-1.81521464526213e-14,0.0499607617591091,0.0178275738437212,0,0,0,0.00295133398357026,0.00448837911033803
7.6,-0.321925513141284,0.322083499169113,0,0,0,0,1.00015799850828,4.91967577787022e-15,0.0511777313337413,0.0181204143973843,0,0,0,0.00309219603832668,0.00467798549831787
7.8,-0.329142328768234,0.3293037471426,0,0,0,0,1.00016143140301,7.58074159001865e-15,0.0523945569560087,0.018409256405754,0,0,0,0.00323551795552161,0.00486908158253432
8,-0.336307394663055,0.336472236621213,0,0,0,0,1.00016485554534,1.54737334057131e-15,0.0536113369609388,0.0186943052253605,0,0,0,0.00338126241724349,0.00506154252972295
8.2,-0.343421447055384,0.343589704390077,0,0,0,0,1.00016827149075,-1.38222766565832e-14,0.0548281279573665,0.0189757478864954,0,0,0,0.00352939355275985,0.00525524415219853
8.4,-0.350485206681635,0.350656871613169,0,0,0,0,1.0001716796668,1.21326559909818e-14,0.0560449474273398,0.0192537544317542,0,0,0,0.003679876880998,0.00545006281480598
8.6,-0.357499379214424,0.357674444271816,0,0,0,0,1.00017508038217,-4.88498130835069e-15,0.0572617764127539,0.0195284792085034,0,0,0,0.00383267925519301,0.00564587538544672
8.8,-0.364464655676689,0.364643113587909,0,0,0,0,1.00017847383578,-3.96557786608298e-15,0.0584785622634265,0.0198000621100564,0,0,0,0.0039877688096281,0.00584255922707048
9,-0.371381712841216,0.371563556432483,0,0,0,0,1.00018186012581,-1.41067713066434e-14,0.0596952214221328,0.0200686297602443,0,0,0,0.00414511490839644,0.00603999222877555
9.2,-0.378251213616218,0.378436435720245,0,0,0,0,1.0001852392587,-7.91033905045424e-16,0.0609116422267007,0.0203342966393434,0,0,0,0.00430468809611579,0.00623805287343867
9.4,-0.385073807417584,0.385262400790645,0,0,0,0,1.00018861115791,-1.12722331468973e-14,0.0621276877100936,0.0205971661489132,0,0,0,0.00446646005052939,0.00643662033910583
9.6,-0.391850130528405,0.392042087776024,0,0,0,0,1.00019197567259,-1.31214483722886e-14,0.0633431983828333,0.0208573316153949,0,0,0,0.00463040353692965,0.00663557463121068
9.8,-0.398580806446304,0.398776119957368,0,0,0,0,1.00019533258599,-1.28438926161323e-14,0.0645579949827874,0.0211148772319642,0,0,0,0.0047964923643424,0.00683479674254846
10,-0.405266446219124,0.405465108108164,0,0,0,0,1.00019868162362,9.67975699595058e-15,0.0657718811800153,0.0213698789398631,0,0,0,0.00496470134341172,0.00703416883781875
10.2,-0.411907648769439,0.412109650826833,0,0,0,0,1.00020202246118,5.82520143233012e-15,0.0669846462249526,0.0216224052501751,0,0,0,0.00513500624592728,0.00723357445946047
10.4,-0.418505001208392,0.418710334858185,0,0,0,0,1.00020535473219,1.38708489139105e-14,0.0681960675301654,0.0218725180081939,0,0,0,0.00530738376593742,0.00743289875143627
10.6,-0.425059079139288,0.425267735404344,0,0,0,0,1.00020867803529,-2.39842867788553e-14,0.069405913175929,0.0221202731018555,0,0,0,0.0054818114823931,0.00763202869758225
10.8,-0.431570446951365,0.431782416425538,0,0,0,0,1.00021199194129,1.08732467474226e-14,0.070613944332148,0.0223657211173242,0,0,0,0.00565826782326912,0.00783085337112045
11,-0.43803965810417,0.438254930931155,0,0,0,0,1.00021529599984,1.88044024795886e-15,0.0718199175879682,0.0226089079430438,0,0,0,0.00583673203111068,0.0080292641919418
11.2,-0.444467255402898,0.444685821261446,0,0,0,0,1.00021858974581,3.30221960886945e-14,0.0730235871837673,0.0228498753263302,0,0,0,0.00601718412995443,0.00822715518829822
11.4,-0.450853771265079,0.451075619360217,0,0,0,0,1.00022187270525,-2.44942954807925e-15,0.074224707137621,0.0230886613834163,0,0,0,0.00619960489357493,0.00842442325960367
11.6,-0.457199727978957,0.457424847038875,0,0,0,0,1.00022514440112,-6.1409211049579e-15,0.0754230332621871,0.0233253010671436,0,0,0,0.00638397581500838,0.00862096843712911
11.8,-0.463505637953898,0.46373401623214,0,0,0,0,1.00022840435855,2.35922392732846e-16,0.0766183250653725,0.023559826593335,0,0,0,0.00657027907730699,0.0088166941394878
12,-0.469772003963137,0.470003629245736,0,0,0,0,1.00023165210981,1.94705362943637e-14,0.0778103475313834,0.0237922678295194,0,0,0,0.0067584975254786,0.00901150741994546
12.2,-0.475999319379179,0.476234178996372,0,0,0,0,1.00023488719887,1.03042574473022e-14,0.0789988727774286,0.0240226526477191,0,0,0,0.00694861463956743,0.00920531920275163
12.4,-0.482188068402134,0.482426149244293,0,0,0,0,1.00023810918565,-3.73312492030209e-15,0.0801836815829961,0.0242510072439905,0,0,0,0.00714061450883312,0.0093980445058787
12.6,-0.488338726281263,0.488580014818671,0,0,0,0,1.00024131764983,3.03923552991137e-15,0.0813645647884577,0.0244773564265573,0,0,0,0.00733448180698621,0.0095896026477586
12.8,-0.494451759530006,0.494696241836107,0,0,0,0,1.00024451219434,5.10008701937181e-15,0.0825413245609473,0.0247017238748024,0,0,0,0.00753020176843998,0.00977991743584523
13,-0.500527626134733,0.500775287912489,0,0,0,0,1.00024769244847,6.21031004399697e-15,0.0837137755260692,0.0249241323712132,0,0,0,0.00772776016553919,0.00996891733508171
13.2,-0.506566775757461,0.506817602368452,0,0,0,0,1.00025085807062,1.30451205393456e-15,0.0848817457642826,0.025144604007884,0,0,0,0.00792714328672788,0.0101565356146044
13.4,-0.51256964993276,0.512823626428664,0,0,0,0,1.00025400875066,-1.1671219546372e-14,0.0860450776720099,0.0253631603695013,0,0,0,0.00812833791561941,0.0103427104713084
13.6,-0.518536682259075,0.518793793415168,0,0,0,0,1.000257144212,1.68476343986868e-14,0.0872036286880842,0.0255798226944484,0,0,0,0.00833133131093315,0.0105273851291813
13.8,-0.524468298584654,0.524728528934982,0,0,0,0,1.00026026421318,-8.95117313604032e-16,0.0883572718866699,0.0257946120153136,0,0,0,0.00853611118726337,0.010710507913606
14,-0.530364917188284,0.53062825106217,0,0,0,0,1.00026336854929,6.75154376850173e-15,0.0895058964395861,0.0260075492809926,0,0,0,0.00874266569664731,0.0108920323001329
14.2,-0.536226948955024,0.536493370514568,0,0,0,0,1.00026645705292,-1.80827575135822e-14,0.0906494079499568,0.0262186554607,0,0,0,0.00895098341089991,0.0110719169375109
14.4,-0.542054797547103,0.542324290825362,0,0,0,0,1.00026952959483,-8.20871148832225e-15,0.0917877286620918,0.0264279516323305,0,0,0,0.00916105330468474,0.0112501256450632
14.6,-0.54784885957015,0.548121408509688,0,0,0,0,1.00027258608437,1.30798150088651e-14,0.0929207975511088,0.0266354590553993,0,0,0,0.00937286473929083,0.0114266273847642
14.8,-0.553609524734921,0.553885113226438,0,0,0,0,1.00027562646951,-5.94663207564849e-15,0.0940485702982893,0.0268411992304892,0,0,0,0.00958640744708695,0.0116013962086482
15,-0.559337176014657,0.559615787935423,0,0,0,0,1.00027865073667,-3.77267661555436e-14,0.0951710191578384,0.0270451939460971,0,0,0,0.0098016715166255,0.0117744111824221
15.2,-0.565032189798236,0.565313809050061,0,0,0,0,1.00028165891025,1.82839854367955e-14,0.0962881327214054,0.02724746531379,0,0,0,0.0100186473783695,0.0119456562863884
15.4,-0.570694936039225,0.570979546585738,0,0,0,0,1.00028465105194,-6.30051566474776e-15,0.0973999155871891,0.0274480357924738,0,0,0,0.0102373257910169,0.0121151202949895
15.6,-0.576325778400989,0.576613364303994,0,0,0,0,1.0002876272598,2.85882428840978e-15,0.0985063879423616,0.0276469282039797,0,0,0,0.0104576978283975,0.0122827966364627
15.8,-0.581925074397951,0.582215619852664,0,0,0,0,1.00029058766713,-1.06858966120171e-14,0.0996075850647925,0.0278441657390079,0,0,0,0.0106797548669194,0.0124486832342543
16,-0.587493175533138,0.587786664902119,0,0,0,0,1.0002935324412,-1.20875531806064e-14,0.100703556753952,0.028039771956042,0,0,0,0.0109034885735412,0.0126127823319645
16.2,-0.593030427432105,0.593326845277734,0,0,0,0,1.00029646178174,-1.8547663405144e-14,0.101794366698226,0.0282337707729706,0,0,0,0.0111288908942494,0.0127751003036912
16.4,-0.598537169973351,0.598836501088704,0,0,0,0,1.00029937591938,2.87339596560798e-14,0.102880091787766,0.0284261864529092,0,0,0,0.0113559540430188,0.0129356474517137
16.6,-0.604013737415328,0.60431596685333,0,0,0,0,1.00030227511392,2.13995487996499e-14,0.10396082138069,0.0286170435843582,0,0,0,0.0115846704912368,0.0130944377934929
16.8,-0.609460458520124,0.609765571620894,0,0,0,0,1.00030515965251,-5.1833537462187e-15,0.105036656531916,0.028806367057364,0,0,0,0.0118150329575714,0.0132514888399802
17,-0.614877656673928,0.615185639090233,0,0,0,0,1.00030802984776,5.86336534880161e-15,0.10610770919185,0.028994182035395,0,0,0,0.0120470343982656,0.0134068213672116
17.2,-0.620265650004348,0.62057648772511,0,0,0,0,1.00031088603581,2.0421164759199e-14,0.107174101383315,0.0291805139240404,0,0,0,0.0122806679978387,0.0135604591831286
17.4,-0.625624751494682,0.625938430866495,0,0,0,0,1.00031372857433,1.43773881688958e-14,0.108235964364542,0.0293653883373549,0,0,0,0.0125159271601791,0.0137124288915035
17.6,-0.63095526909521,0.631271776841858,0,0,0,0,1.00031655784051,2.05183092738537e-14,0.109293437785205,0.0295488310621643,0,0,0,0.0127528055000114,0.0138627596547689
17.8,-0.63625750583159,0.636576829071551,0,0,0,0,1.00031937422905,1.06650799303054e-14,0.110346668842181,0.029730868020763,0,0,0,0.0129912968347222,0.014011482957454
18,-0.641531759910437,0.641853886172395,0,0,0,0,1.00032217815019,6.77929934411736e-15,0.111395811441738,0.0299115252328944,0,0,0,0.0132313951765297,0.0141586323718171
18.2,-0.646778324822158,0.647103242058539,0,0,0,0,1.0003249700277,-6.61276589042359e-15,0.112441025373516,0.030090828777045,0,0,0,0.013473094724982,0.0143042433271406
18.4,-0.65199748944111,0.65232518603969,0,0,0,0,1.00032775029698,1.92137972199191e-14,0.113482475501926,0.0302688047518564,0,0,0,0.0137163898597717,0.0144483528840234
18.6,-0.65718953812316,0.657520002916794,0,0,0,0,1.00033051940314,4.47558656802016e-15,0.114520330979163,0.0304454792375476,0,0,0,0.0139612751338517,0.014590999514864
18.8,-0.662354750800714,0.662687973075237,0,0,0,0,1.00033327779923,1.56472057533108e-14,0.115554764484689,0.0306208782584413,0,0,0,0.0142077452668408,0.0147322228915891
19,-0.66749340307527,0.667829372575656,0,0,0,0,1.00033602594446,-1.01793573570319e-14,0.116585951493718,0.0307950277458758,0,0,0,0.0144557951387057,0.0148720636815344
19.2,-0.672605766307585,0.672944473242426,0,0,0,0,1.00033876430251,9.499345754449e-15,0.117614069578756,0.0309679535028546,0,0,0,0.0147054197837092,0.0150105633522472
19.4,-0.677692107705497,0.678033542749897,0,0,0,0,1.00034149333998,-1.59386392972749e-14,0.118639297745491,0.0311396811695154,0,0,0,0.0149566143846108,0.0151477639858352
19.6,-0.682752690409483,0.683096844706444,0,0,0,0,1.00034421352485,-7.62584440039404e-15,0.11966181580619,0.0313102361908516,0,0,0,0.0152093742671122,0.0152837081033567
19.8,-0.687787773576006,0.688134638736401,0,0,0,0,1.00034692532507,-1.35863542638504e-14,0.120681803790696,0.0314796437855417,0,0,0,0.0154636948945341,0.0154184384996146
20,-0.692797612458711,0.693147180559945,0,0,0,0,1.00034962920728,-1.99146255042137e-15,0.121699441397127,0.0316479289171437,0,0,0,0.0157195718627159,0.0155519980885998
20.2,-0.697782458487544,0.698134722070984,0,0,0,0,1.00035232563554,-3.19189119579733e-15,0.122714907481924,0.0318151162668958,0,0,0,0.0159770008951295,0.0156844297597149
20.4,-0.702742559345832,0.703097511413114,0,0,0,0,1.00035501507022,-8.22258927613007e-15,0.123728379589948,0.0319812302087755,0,0,0,0.0162359778381953,0.0158157762448061
20.6,-0.707678159045398,0.708035793053696,0,0,0,0,1.00035769796696,-1.38777878078145e-14,0.12474003352403,0.0321462947864664,0,0,0,0.0164964986567952,0.0159460799959401
20.8,-0.712589497999763,0.712949807856125,0,0,0,0,1.00036037477575,-1.73472347597681e-16,0.12575004295359,0.0323103336924611,0,0,0,0.0167585594299706,0.0160753830737765
21,-0.717476813095488,0.717839793150317,0,0,0,0,1.00036304594006,1.68129399291672e-14,0.126758579061382,0.032473370249152,0,0,0,0.0170221563468004,0.0162037270463159
21.2,-0.722340337761709,0.72270598280149,0,0,0,0,1.00036571189608,-6.1409211049579e-15,0.127765810227418,0.0326354273920251,0,0,0,0.0172872857024483,0.0163311528977371
21.4,-0.727180302037924,0.727548607277278,0,0,0,0,1.00036837307206,1.40304434737004e-14,0.128771901748872,0.0327965276549993,0,0,0,0.017553943894375,0.0164577009469851
21.6,-0.731996932640081,0.732367893713227,0,0,0,0,1.00037102988771,8.70137295549966e-15,0.129777015593961,0.0329566931572847,0,0,0,0.0178221274187054,0.0165834107757282
21.8,-0.736790453025011,0.73716406597672,0,0,0,0,1.00037368275372,-1.21083698623181e-14,0.130781310189148,0.0331159455926338,0,0,0,0.0180918328667458,0.0167083211652609
22,-0.741561083453264,0.741937344729377,0,0,0,0,1.00037633207127,-2.90045765183322e-15,0.131784940237222,0.0332743062201336,0,0,0,0.0183630569216439,0.01683247004191
22.2,-0.746309041050392,0.746687947487975,0,0,0,0,1.00037897823169,-8.61810622865278e-15,0.132788056564679,0.033431795856646,0,0,0,0.0186357963551854,0.0169558944304724
22.4,-0.751034539866723,0.751416088683921,0,0,0,0,1.00038162161621,-3.13638004456607e-15,0.133790805996982,0.0335884348711801,0,0,0,0.0189100480247208,0.0170786304152067
22.6,-0.755737790935675,0.756121979721334,0,0,0,0,1.00038426259562,-2.62984078958084e-15,0.1347933312593,0.0337442431805453,0,0,0,0.0191858088702181,0.0172007131078891
22.8,-0.760419002330652,0.76080582903376,0,0,0,0,1.00038690153021,-5.8564264548977e-15,0.13579577090135,0.0338992402466355,0,0,0,0.0194630759114334,0.0173221766224442
23,-0.765078379220563,0.765467842139572,0,0,0,0,1.00038953876954,-4.30211422042248e-16,0.136798259244287,0.0340534450750121,0,0,0,0.0197418462451975,0.0174430540556655
23.2,-0.769716123924007,0.770108221696074,0,0,0,0,1.00039217465245,8.89566198480907e-15,0.137800926347884,0.0342068762147318,0,0,0,0.0200221170428099,0.017563377473545
23.4,-0.774332435962167,0.774727167552368,0,0,0,0,1.00039480950697,1.17753029549306e-14,0.138803897996338,0.0343595517593853,0,0,0,0.0203038855475384,0.0176831779027459
23.6,-0.778927512110439,0.779324876800998,0,0,0,0,1.00039744365037,-1.0325074129014e-14,0.139807295700942,0.0345114893491974,0,0,0,0.0205871490722179,0.0178024853267629
23.8,-0.783501546448854,0.78390154382841,0,0,0,0,1.00040007738918,-1.40928935188356e-14,0.140811236718094,0.0346627061741833,0,0,0,0.0208719049969449,0.0179213286863344
24,-0.788054730411303,0.78845736036427,0,0,0,0,1.00040271101929,1.80480630440627e-14,0.141815834080839,0.0348132189780387,0,0,0,0.0211581507668628,0.018039735883686
24.2,-0.792587252833632,0.792992515529661,0,0,0,0,1.00040534482605,-1.35308431126191e-15,0.142821196642655,0.0349630440628435,0,0,0,0.0214458838900354,0.018157733790208
24.4,-0.797099300000605,0.797507195884188,0,0,0,0,1.00040797908442,-1.47798440153224e-15,0.143827429132382,0.035112197294829,0,0,0,0.0217351019354027,0.0182753482571871
24.6,-0.801591055691794,0.802001585472028,0,0,0,0,1.00041061405912,1.870031907103e-14,0.144834632218169,0.0352606941102939,0,0,0,0.0220258025308172,0.0183926041292371
24.8,-0.806062701226422,0.806475865866949,0,0,0,0,1.00041325000479,2.33840724561674e-15,0.14584290257992,0.0354085495223254,0,0,0,0.0223179833611563,0.0185095252600934
25,-0.810514415507176,0.810930216216329,0,0,0,0,1.00041588716625,8.28503932126523e-15,0.146852332989003,0.0355557781281731,0,0,0,0.0226116421665082,0.0186261345304597
25.2,-0.814946375063042,0.815364813284195,0,0,0,0,1.00041852577864,1.55431223447522e-14,0.147863012393635,0.0357023941166795,0,0,0,0.0229067767404267,0.0187424538676149
25.4,-0.819358754091162,0.819779831493312,0,0,0,0,1.00042116606768,3.18495230189342e-15,0.148875026009584,0.0358484112763466,0,0,0,0.023203384928254,0.0188585042665136
25.6,-0.823751724497772,0.824175442966349,0,0,0,0,1.00042380824993,-2.15730211472476e-14,0.149888455414958,0.035993843003652,0,0,0,0.0235014646255062,0.0189743058121306
25.8,-0.828125455938218,0.828551817566148,0,0,0,0,1.00042645253297,2.27526331109118e-14,0.150903378648317,0.036138702311631,0,0,0,0.0238010137763212,0.0190898777028227
26,-0.832480115856099,0.832909122935104,0,0,0,0,1.0004290991157,9.04831765069503e-15,0.151919870308998,0.0362830018383251,0,0,0,0.0241020303719644,0.0192052382744997
26.2,-0.836815869521542,0.837247524533702,0,0,0,0,1.00043174818859,-1.75831571525009e-14,0.152938001659956,0.036426753856044,0,0,0,0.0244045124493909,0.0193204050254163
26.4,-0.841132880068648,0.841567185678219,0,0,0,0,1.00043439993391,-1.76247905159244e-15,0.153957840731291,0.0365699702801912,0,0,0,0.0247084580898609,0.0194353946414126
26.6,-0.845431308532121,0.845868267577609,0,0,0,0,1.000437054526,6.23112672570869e-15,0.154979452424495,0.036712662678204,0,0,0,0.025013865417607,0.0195502230214494
26.8,-0.849711313883114,0.85015092936961,0,0,0,0,1.00043971213155,-6.88338275267597e-15,0.156002898617119,0.0368548422787829,0,0,0,0.0253207325985506,0.0196649053032998
27,-0.853973053064294,0.854415328156068,0,0,0,0,1.00044237290982,2.27873275804313e-14,0.157028238267066,0.0369965199810199,0,0,0,0.0256290578390651,0.0197794558892738
27.2,-0.858216681024171,0.858661619037519,0,0,0,0,1.00044503701295,2.30232499731642e-14,0.158055527515951,0.0371377063632437,0,0,0,0.0259388393847848,0.0198938884718649
27.4,-0.862442350750688,0.86288995514704,0,0,0,0,1.00044770458615,2.73114864057789e-14,0.159084819791908,0.037278411692266,0,0,0,0.0262500755194566,0.0200082160592234
27.6,-0.866650213304113,0.867100487683383,0,0,0,0,1.000450375768,5.53723733531797e-15,0.160116165910659,0.0374186459321393,0,0,0,0.0265627645638335,0.020122451000371
27.8,-0.870840417849226,0.871293365943419,0,0,0,0,1.00045305069067,-5.05151476204446e-15,0.1611496141753,0.0375584187531169,0,0,0,0.0268769048746076,0.020236605010082
28,-0.875013111686843,0.8754687373539,0,0,0,0,1.0004557294802,-5.81479309147426e-15,0.162185210474056,0.0376977395402604,0,0,0,0.0271924948433812,0.020350689193369
28.2,-0.879168440284686,0.879626747502564,0,0,0,0,1.00045841225668,1.37390099297363e-14,0.163222998376191,0.0378366174020737,0,0,0,0.0275095328956746,0.0204647140695167
28.4,-0.883306547307605,0.883767540168595,0,0,0,0,1.00046109913453,-1.765254609154e-14,0.164263019225623,0.0379750611788471,0,0,0,0.0278280174899689,0.0205786895956204
28.6,-0.887427574647183,0.887891257352457,0,0,0,0,1.00046379022272,1.17683640610267e-14,0.165305312232619,0.0381130794512054,0,0,0,0.0281479471167821,0.0206926251895874
28.8,-0.891531662450738,0.891998039305111,0,0,0,0,1.00046648562497,1.77496906061947e-14,0.16634991456246,0.0382506805478466,0,0,0,0.0284693202977775,0.0208065297525741
29,-0.895618949149726,0.896088024556636,0,0,0,0,1.00046918543998,-6.00908212078366e-15,0.167396861422294,0.0383878725537594,0,0,0,0.0287921355849033,0.0209204116908299
29.2,-0.899689571487573,0.900161349944271,0,0,0,0,1.00047188976166,-1.33087985076941e-14,0.168446186145159,0.0385246633179632,0,0,0,0.0291163915595617,0.0210342789369315
29.4,-0.903743664546938,0.904218150639886,0,0,0,0,1.00047459867928,-1.95815585968262e-14,0.169497920271358,0.0386610604609734,0,0,0,0.0294420868318062,0.0211481389703918
29.6,-0.907781361776437,0.908258560176891,0,0,0,0,1.00047731227772,-2.35922392732846e-15,0.17055209362744,0.038797071382292,0,0,0,0.0297692200395663,0.0212619988376332
29.8,-0.911802795016823,0.912282710476616,0,0,0,0,1.00048003063764,-6.73072708679001e-15,0.17160873440239,0.0389327032675021,0,0,0,0.0300977898478989,0.0213758651713219
30,-0.915808094526648,0.916290731874155,0,0,0,0,1.00048275383565,-2.91433543964104e-16,0.172667869221448,0.0390679630954196,0,0,0,0.0304277949482643,0.0214897442090575
30.2,-0.919797389007415,0.920282753143693,0,0,0,0,1.00048548194451,-1.346145417358e-15,0.173729523217082,0.0392028576447776,0,0,0,0.0307592340578266,0.0216036418114222
30.4,-0.923770805628232,0.924258901523332,0,0,0,0,1.00048821503328,-1.31838984174237e-15,0.174793720097588,0.0393373935009222,0,0,0,0.0310921059187774,0.0217175634793906
30.6,-0.927728470049982,0.928219302739429,0,0,0,0,1.00049095316752,1.58623114643319e-14,0.175860482213066,0.0394715770622184,0,0,0,0.0314264092976818,0.0218315143711077
30.8,-0.931670506449017,0.932164081030445,0,0,0,0,1.00049369640941,8.9234175604247e-15,0.176929830618854,0.0396054145462181,0,0,0,0.0317621429848457,0.0219454993180428
31,-0.935597037540391,0.936093359170335,0,0,0,0,1.0004964448179,1.4058199049316e-14,0.178001785136701,0.0397389119958369,0,0,0,0.032099305793704,0.0220595228405281
31.2,-0.939508184600641,0.940007258491471,0,0,0,0,1.00049919844892,5.80091530366644e-15,0.179076364413278,0.0398720752850696,0,0,0,0.0324378965602284,0.0221735891626949
31.4,-0.943404067490128,0.943905898907129,0,0,0,0,1.00050195735545,-1.35724764760425e-14,0.180153585976561,0.0400049101247483,0,0,0,0.0327779141423542,0.0222877022268183
31.6,-0.947284804674941,0.947789398933526,0,0,0,0,1.00050472158768,-1.03111963412061e-14,0.181233466289839,0.0401374220680322,0,0,0,0.0331193574194258,0.022401865707085
31.8,-0.951150513248393,0.951657875711446,0,0,0,0,1.00050749119316,-2.12885264971874e-14,0.182316020803392,0.040269616515613,0,0,0,0.0334622252916595,0.0225160830227983
32,-0.955001308952089,0.955511445027436,0,0,0,0,1.00051026621688,5.59274848654923e-15,0.183401264004259,0.040401498721006,0,0,0,0.0338065166796232,0.0226303573510351
32.2,-0.958837306196608,0.959350221334602,0,0,0,0,1.00051304670146,-7.25808302348696e-15,0.184489209463521,0.0405330737952917,0,0,0,0.0341522305237331,0.0227446916387697
32.4,-0.962658618081779,0.963174317773006,0,0,0,0,1.00051583268717,-1.01862962509358e-14,0.185579869882036,0.0406643467121642,0,0,0,0.0344993657837648,0.0228590886144823
32.6,-0.966465356416586,0.966983846189673,0,0,0,0,1.00051862421214,6.57807142090405e-15,0.18667325713376,0.0407953223123932,0,0,0,0.0348479214383812,0.022973550799266
32.8,-0.970257631738688,0.970778917158225,0,0,0,0,1.00052142131239,-1.78884684842728e-14,0.187769382307311,0.0409260053082618,0,0,0,0.0351978964846734,0.0230880805174504
33,-0.974035553333576,0.974559639998131,0,0,0,0,1.00052422402197,-1.97064586870965e-15,0.188868255745929,0.0410564002880932,0,0,0,0.0355492899377169,0.0232026799067558
33.2,-0.977799229253374,0.978326122793608,0,0,0,0,1.00052703237302,-3.66373598126302e-15,0.189969887085172,0.0411865117201316,0,0,0,0.0359021008301401,0.0233173509279979
33.4,-0.981548766335287,0.982078472412158,0,0,0,0,1.00052984639591,-1.26565424807268e-14,0.191074285289385,0.0413163439567659,0,0,0,0.0362563282117073,0.0234320953743544
33.6,-0.985284270219705,0.985816794522765,0,0,0,0,1.0005326661193,9.68669588985449e-15,0.192181458686279,0.0414459012383635,0,0,0,0.0366119711489125,0.0235469148802138
33.8,-0.989005845367979,0.989541193613748,0,0,0,0,1.00053549157022,1.4432899320127e-14,0.193291414999851,0.0415751876968899,0,0,0,0.0369690287245871,0.0236618109296193
34,-0.99271359507986,0.993251773010283,0,0,0,0,1.00053832277415,9.07607322631065e-15,0.19440416138204,0.041704207359655,0,0,0,0.0373275000375175,0.023776784864325
34.2,-0.996407621510625,0.996948634891609,0,0,0,0,1.00054115975512,1.81243908770057e-14,0.195519704442737,0.0418329641527463,0,0,0,0.0376873842020754,0.0238918378914776
34.4,-1.00008802568789,1.00063188030791,0,0,0,0,1.00054400253576,3.33066907387547e-16,0.196638050278354,0.041961461904293,0,0,0,0.038048680347858,0.0240069710909414
34.6,-1.0037549075281,1.00430160919687,0,0,0,0,1.00054685113736,-4.38538094726937e-15,0.197759204499271,0.0420897043478395,0,0,0,0.0384113876193394,0.0241221854222775
34.8,-1.00740836585276,1.00795792039998,0,0,0,0,1.00054970557998,-5.93969318174459e-15,0.198883172255721,0.0422176951253231,0,0,0,0.038775505175531,0.0242374817313946
35,-1.01104849840432,1.01160091167848,0,0,0,0,1.00055256588247,-5.82867087928207e-15,0.200009958262627,0.0423454377901287,0,0,0,0.0391410321896529,0.0243528607568828
35.2,-1.01467540186181,1.01523067972906,0,0,0,0,1.00055543206255,5.4678483962789e-15,0.201139566823199,0.0424729358099781,0,0,0,0.039507967848814,0.0244683231360453
35.4,-1.01828917185617,1.01884732019925,0,0,0,0,1.00055830413685,8.52096171399808e-15,0.20227200185136,0.0426001925696712,0,0,0,0.0398763113537009,0.0245838694106388
35.6,-1.02188990298536,1.02245092770255,0,0,0,0,1.00056118212099,-1.46133105616286e-14,0.203407266893157,0.0427272113737969,0,0,0,0.0402460619182764,0.0246995000323386
35.8,-1.02547768882909,1.02604159583327,0,0,0,0,1.00056406602963,3.17801340798951e-15,0.204545365147191,0.0428539954493977,0,0,0,0.0406172187694857,0.024815215367936
36,-1.02905262196342,1.02961941718116,0,0,0,0,1.0005669558765,-2.34673391830142e-14,0.205686299483738,0.0429805479482206,0,0,0,0.0409897811469709,0.0249310157042839
36.2,-1.03261479397502,1.03318448334565,0,0,0,0,1.00056985167445,4.03843625207401e-15,0.206830072463492,0.0431068719494486,0,0,0,0.0413637483027941,0.0250469012529987
36.4,-1.03616429547515,1.03673688495002,0,0,0,0,1.00057275343551,-5.07927033766009e-15,0.207976686354709,0.0432329704616371,0,0,0,0.0417391195011669,0.0251628721549312
36.6,-1.03970121611353,1.04027671165515,0,0,0,0,1.00057566117094,9.0205620750794e-16,0.209126143150178,0.0433588464252694,0,0,0,0.0421158940181883,0.025278928484416
36.8,-1.0432256445918,1.04380405217311,0,0,0,0,1.00057857489124,6.00908212078366e-15,0.210278444582839,0.0434845027146893,0,0,0,0.0424940711415894,0.0253950702533094
37,-1.04673766867683,1.04731899428056,0,0,0,0,1.0005814946062,3.44169137633799e-15,0.211433592140898,0.0436099421402426,0,0,0,0.0428736501704846,0.0255112974148269
37.2,-1.05023737521384,1.05082162483176,0,0,0,0,1.00058442032497,-9.67281810204668e-15,0.212591587082113,0.0437351674502611,0,0,0,0.0432546304151302,0.0256276098671866
37.4,-1.05372485013919,1.05431202977153,0,0,0,0,1.00058735205604,-2.31759056390501e-15,0.2137524304474,0.043860181333009,0,0,0,0.0436370111966885,0.0257440074570708
37.6,-1.05720017849303,1.05779029414785,0,0,0,0,1.00059028980732,-1.96231919602496e-14,0.214916123073617,0.0439849864184198,0,0,0,0.0440207918469992,0.0258604899829116
37.8,-1.06066344443167,1.06125650212434,0,0,0,0,1.00059323358615,-2.10248485288389e-14,0.216082665605976,0.0441095852800381,0,0,0,0.0444059717083563,0.0259770571980106
38,-1.06411473123982,1.06471073699243,0,0,0,0,1.00059618339933,2.17464934948453e-14,0.217252058509571,0.0442339804366366,0,0,0,0.0447925501332901,0.0260937088134987
38.2,-1.06755412134251,1.0681530811834,0,0,0,0,1.00059913925316,1.68753899743024e-14,0.218424302080307,0.0443581743537614,0,0,0,0.0451805264843565,0.0262104445011449
38.4,-1.07098169631692,1.07158361628019,0,0,0,0,1.00060210115345,-1.87350135405495e-14,0.219599396455612,0.0444821694455543,0,0,0,0.0455699001339302,0.0263272638960213
38.6,-1.07439753690392,1.07500242302898,0,0,0,0,1.00060506910556,1.27398092075737e-14,0.220777341624347,0.044605968076261,0,0,0,0.0459606704640042,0.0264441665990295
38.8,-1.07780172301946,1.07840958135059,0,0,0,0,1.00060804311445,-5.09314812546791e-15,0.221958137435948,0.0447295725614168,0,0,0,0.0463528368659937,0.0265611521792974
39,-1.08119433376576,1.08180517035173,0,0,0,0,1.00061102318463,-3.0739299994309e-14,0.223141783609745,0.0448529851696464,0,0,0,0.0467463987405456,0.0266782201764501
39.2,-1.0845754474423,1.08518926833597,0,0,0,0,1.00061400932026,-4.08006961549745e-15,0.224328279743313,0.0449762081239009,0,0,0,0.0471413554973528,0.0267953701027629
39.4,-1.08794514155666,1.08856195281461,0,0,0,0,1.00061700152513,-1.82354131794682e-14,0.225517625320347,0.0450992436026144,0,0,0,0.0475377065549722,0.0269126014452013
39.6,-1.0913034928351,1.09192330051731,0,0,0,0,1.00061999980269,-1.02279296143593e-14,0.226709819718603,0.0452220937412932,0,0,0,0.0479354513406484,0.0270299136673531
39.8,-1.09465057723305,1.0952733874026,0,0,0,0,1.00062300415607,1.25038868148408e-14,0.227904862216902,0.0453447606335247,0,0,0,0.0483345892901412,0.0271473062112586
40,-1.09798646994542,1.09861228866811,0,0,0,0,1.00062601458809,-1.49880108324396e-14,0.229102752002002,0.0454672463321818,0,0,0,0.0487351198475576,0.0272647784991434
40.2,-1.094654892791,1.0952733874026,0,0,0,0,1.00061868591882,-1.11716191852906e-14,0.226160892124086,0.0451947518712415,0,0,0,0.0483345954449725,0.0266703725936205
40.4,-1.09131195508255,1.09192330051731,0,0,0,0,1.00061153234447,1.55986334959834e-14,0.223291904870833,0.0449261814157286,0,0,0,0.0479354639897865,0.0260951736073654
40.6,-1.08795759196095,1.08856195281461,0,0,0,0,1.00060454351648,-1.9373391779709e-14,0.220491446210801,0.0446613401165114,0,0,0,0.0475377258915741,0.0255380111370389
40.8,-1.08459173688556,1.08518926833597,0,0,0,0,1.00059771000789,1.73472347597681e-14,0.217755560641146,0.0444000488176358,0,0,0,0.0471413815903972,0.0249978190461137
41,-1.08121432172811,1.08180517035173,0,0,0,0,1.00059102320904,6.99440505513849e-15,0.215080637058748,0.0441421424283454,0,0,0,0.0467464315536842,0.0244736236528871
41.2,-1.07782527685226,1.07840958135059,0,0,0,0,1.00058447523746,-6.32827124036339e-15,0.212463370643756,0.0438874685041473,0,0,0,0.0463528762736494,0.0239645335248701
41.4,-1.07442453118106,1.07500242302898,0,0,0,0,1.00057805885958,-5.44009282066327e-15,0.209900729806028,0.0436358860042359,0,0,0,0.0459607162651559,0.0234697306266367
41.6,-1.07101201225416,1.07158361628019,0,0,0,0,1.00057176742275,1.45439216225896e-14,0.207389927415943,0.0433872642001966,0,0,0,0.0455699520639452,0.022988462613181
41.8,-1.06758764627616,1.0681530811834,0,0,0,0,1.00056559479569,1.33226762955019e-15,0.204928395675474,0.0431414817141418,0,0,0,0.0451805842251713,0.022520036096932
42,-1.06415135815757,1.06471073699243,0,0,0,0,1.00055953531638,9.57567358739198e-15,0.202513764095247,0.0428984256684656,0,0,0,0.0447926133221879,0.0220638107457241
42.2,-1.06070307154914,1.06125650212434,0,0,0,0,1.00055358374615,-2.08999484385686e-14,0.200143840131221,0.0426579909314072,0,0,0,0.0444060399455486,0.0216191940926823
42.4,-1.05724270887078,1.05779029414785,0,0,0,0,1.00054773522926,-1.60704782814491e-14,0.197816592108389,0.0424200794464234,0,0,0,0.0440208647021863,0.021185636958286
42.6,-1.05377019133542,1.05431202977153,0,0,0,0,1.00054198525707,1.83464354819307e-14,0.195530134116502,0.0421845996335291,0,0,0,0.0436370882147437,0.0207626294007009
42.8,-1.05028543896883,1.05082162483176,0,0,0,0,1.00053632963627,7.74380559676047e-15,0.193282712613204,0.0419514658539994,0,0,0,0.0432547111210327,0.0203496971235009
43,-1.04678837062555,1.04731899428056,0,0,0,0,1.00053076446065,-4.57966997657877e-15,0.191072694509692,0.0417205979304439,0,0,0,0.0428737340736036,0.0199463982806889
43.2,-1.04327890400169,1.04380405217311,0,0,0,0,1.00052528608587,1.06858966120171e-15,0.188898556547064,0.0414919207149294,0,0,0,0.0424941577394094,0.0195523206278762
43.4,-1.03975695564477,1.04027671165515,0,0,0,0,1.00051989110693,2.19685380997703e-14,0.186758875800484,0.041265363699753,0,0,0,0.0421159827995506,0.019167078975958
43.6,-1.03622244096105,1.03673688495002,0,0,0,0,1.00051457633798,8.04911692853238e-15,0.184652321171088,0.0410408606656264,0,0,0,0.0417392099490912,0.0187903129098727
43.8,-1.03267527422049,1.03318448334565,0,0,0,0,1.00050933879414,8.46545056276682e-16,0.182577645745549,0.0408183493630619,0,0,0,0.0413638398969364,0.018421684740293
44,-1.02911536855981,1.02961941718116,0,0,0,0,1.0005041756752,2.08166817117217e-15,0.180533679919235,0.0405977712227048,0,0,0,0.0409898733657635,0.0180608776605293
44.2,-1.02554263598359,1.02604159583327,0,0,0,0,1.00049908435086,-2.50355292052973e-14,0.178519325193738,0.0403790710916772,0,0,0,0.040617311092002,0.0177075940846788
44.4,-1.02195698736378,1.02245092770255,0,0,0,0,1.00049406234739,7.46624984060418e-15,0.176533548571093,0.0401621969930433,0,0,0,0.040246153825854,0.0173615541462392
44.6,-1.01835833243768,1.01884732019925,0,0,0,0,1.00048910733557,1.75137682134618e-14,0.174575377476527,0.039947099905214,0,0,0,0.0398764023313539,0.0170224943391203
44.8,-1.01474657980461,1.01523067972906,0,0,0,0,1.00048421711973,4.02455846426619e-15,0.172643895151839,0.0397337335600362,0,0,0,0.0395080573864615,0.0166901662853026
45,-1.01112163692124,1.01160091167848,0,0,0,0,1.00047938962773,-3.63598040564739e-15,0.170738236467105,0.0395220542567274,0,0,0,0.0391411197831857,0.0163643356153818
45.2,-1.00748341009585,1.00795792039998,0,0,0,0,1.00047462290195,-3.51108031537706e-15,0.168857584105916,0.0393120206901835,0,0,0,0.0387755903277369,0.0160447809499409
45.4,-1.00383180448147,1.00430160919687,0,0,0,0,1.00046991509092,2.67841304690819e-15,0.167001165084639,0.0391035937921803,0,0,0,0.0384114698407043,0.0157312929711662
45.6,-1.00016672406809,1.00063188030791,0,0,0,0,1.00046526444176,-1.06997743998249e-14,0.165168247570728,0.0388967365839449,0,0,0,0.038048759157258,0.0154236735753891
45.8,-0.996488071673908,0.996948634891609,0,0,0,0,1.00046066929322,-9.45077349712165e-15,0.163358137969486,0.038691414038995,0,0,0,0.037687459127373,0.0151217350983399
46,-0.992795748935742,0.993251773010283,0,0,0,0,1.00045612806933,1.31422650540003e-14,0.161570178251832,0.0384875929548504,0,0,0,0.0373275706160745,0.0148252996058515
46.2,-0.989089656298624,0.989541193613748,0,0,0,0,1.00045163927344,2.3037127760972e-14,0.159803743499244,0.0382852418328546,0,0,0,0.0369690945037025,0.014534198243585
46.4,-0.985369693004625,0.985816794522765,0,0,0,0,1.00044720148292,-1.27675647831893e-15,0.158058239644494,0.0380843307651889,0,0,0,0.0366120316861963,0.0142482706400698
46.6,-0.981635757080965,0.982078472412158,0,0,0,0,1.00044281334409,4.06619182768964e-15,0.156333101389133,0.0378848313282101,0,0,0,0.0362563830753971,0.0139673643579907
46.8,-0.977887745327424,0.978326122793608,0,0,0,0,1.00043847356763,6.7168492989822e-15,0.154627790280518,0.0376867164810897,0,0,0,0.0359021495993683,0.0136913343892024
47,-0.974125553303082,0.974559639998131,0,0,0,0,1.00043418092431,3.1266655931006e-14,0.152941792933849,0.0374899604696648,0,0,0,0.035549332202733,0.0134200426894459
47.2,-0.970349075312431,0.970778917158225,0,0,0,0,1.00042993424104,3.46667139439205e-14,0.151274619385108,0.0372945387342647,0,0,0,0.0351979318470292,0.0131533577491638
47.4,-0.966558204390859,0.966983846189673,0,0,0,0,1.00042573239714,-4.78783679369599e-15,0.14962580156327,0.0371004278214374,0,0,0,0.0348479495110818,0.012891154197196
47.6,-0.962752832289541,0.963174317773006,0,0,0,0,1.00042157432095,1.46757606067638e-14,0.147994891870741,0.0369076052988501,0,0,0,0.0344993861913905,0.0126333124344634
47.8,-0.958932849459736,0.959350221334602,0,0,0,0,1.00041745898663,1.5182299861749e-14,0.146381461861849,0.0367160496724628,0,0,0,0.0341522429025363,0.0123797182950496
48,-0.955098145036523,0.955511445027436,0,0,0,0,1.00041338541112,-5.68295410730002e-15,0.144785101011579,0.0365257403064928,0,0,0,0.0338065206776031,0.0121302627323473
48.2,-0.95124860682197,0.951657875711446,0,0,0,0,1.00040935265142,-2.44804176929847e-14,0.143205415565778,0.036336657344893,0,0,0,0.0334622205686175,0.0118848415281707
48.4,-0.947384121267745,0.947789398933526,0,0,0,0,1.00040535980187,1.60635393875452e-14,0.141642027466068,0.0361487816343204,0,0,0,0.0331193436470055,0.0116433550229408
48.6,-0.94350457345719,0.943905898907129,0,0,0,0,1.00040140599177,6.76542155630955e-15,0.140094573342766,0.0359620946479727,0,0,0,0.0327778910040668,0.0114057078652355
48.8,-0.939609847086851,0.940007258491471,0,0,0,0,1.00039749038299,-1.5709655798446e-14,0.13856270357069,0.0357765784106763,0,0,0,0.0324378637514667,0.0111718087791597
49,-0.935699824447463,0.936093359170335,0,0,0,0,1.00039361216782,-7.84095011141517e-15,0.137046081381651,0.0355922154239509,0,0,0,0.0320992630217463,0.0109415703481372
49.2,-0.93177438640441,0.932164081030445,0,0,0,0,1.00038977056685,9.26342336171615e-15,0.135544382029354,0.0354089885912757,0,0,0,0.031762089968852,0.0107149088138601
49.4,-0.927833412377639,0.928219302739429,0,0,0,0,1.00038596482705,-1.40443212615082e-14,0.134057292002429,0.0352268811433223,0,0,0,0.0314263457686831,0.0104917438892437
49.6,-0.923876780321047,0.924258901523332,0,0,0,0,1.00038219421989,1.63410951437015e-14,0.132584508281712,0.0350458765629251,0,0,0,0.0310920316196602,0.0102719985843471
49.8,-0.919904366701323,0.920282753143693,0,0,0,0,1.00037845803955,-3.63598040564739e-15,0.131125737637565,0.0348659585088987,0,0,0,0.0307591487433125,0.0100555990443093
50,-0.915916046476254,0.916290731874155,0,0,0,0,1.00037475560124,1.61676227961038e-14,0.129680695965247,0.0346871107397236,0,0,0,0.030427698384888,0.00984247439843956
50.2,-0.911911693072484,0.912282710476616,0,0,0,0,1.0003710862396,-1.38083988687754e-15,0.12824910765395,0.0345093170354024,0,0,0,0.0300976818139831,0.00963255661967449
50.4,-0.907891178362725,0.908258560176891,0,0,0,0,1.00036744930713,2.06848427275474e-14,0.126830704988256,0.0343325611187257,0,0,0,0.029769100325196,0.00942578039368771
50.6,-0.903854372642411,0.904218150639886,0,0,0,0,1.00036384417271,3.03923552991137e-15,0.125425227578323,0.0341568265744531,0,0,0,0.0294419552388029,0.00922208299699658
50.8,-0.899801144605792,0.900161349944271,0,0,0,0,1.00036027022021,2.4980018054066e-15,0.124032421817852,0.0339820967674743,0,0,0,0.0291162479014576,0.00902140418346984
51,-0.895731361321459,0.896088024556636,0,0,0,0,1.00035672684707,-5.93275428784068e-15,0.122652040366757,0.0338083547586863,0,0,0,0.0287919796869165,0.00882368607868992
51.2,-0.891644888207289,0.89199803930511,0,0,0,0,1.00035321346301,5.67601521339611e-15,0.121283841657642,0.0336355832193101,0,0,0,0.0284691519967891,0.00862887308167049
51.4,-0.887541589004808,0.887891257352457,0,0,0,0,1.00034972948875,7.25808302348696e-15,0.119927589423889,0.0334637643429274,0,0,0,0.0281477662613152,0.00843691177347155
51.6,-0.883421325752949,0.883767540168595,0,0,0,0,1.00034627435477,-2.42861286636753e-16,0.118583052248385,0.0332928797555751,0,0,0,0.0278278239401693,0.0082477508322924
51.8,-0.879283958761213,0.879626747502564,0,0,0,0,1.00034284750013,1.03875241741491e-14,0.117250003131315,0.0331229104235135,0,0,0,0.0275093265232952,0.00806134095465746
52,-0.875129346582204,0.8754687373539,0,0,0,0,1.00033944837126,3.8372083288607e-15,0.115928219075923,0.0329538365586058,0,0,0,0.0271922755317689,0.00787763478234095
52.2,-0.870957345983535,0.871293365943419,0,0,0,0,1.00033607642091,-6.34908792207511e-15,0.114617480691514,0.0327856375215379,0,0,0,0.0268766725186939,0.00769658683470461
52.4,-0.866767811919091,0.867100487683383,0,0,0,0,1.00033273110701,3.37924133120282e-15,0.113317571812498,0.0326182917224924,0,0,0,0.0265625190701279,0.00751815344614864
52.6,-0.862560597499633,0.86288995514704,0,0,0,0,1.00032941189159,1.67227343084164e-15,0.112028279132849,0.0324517765193865,0,0,0,0.0262498168060443,0.00734229270839877
52.8,-0.858335553962729,0.858661619037519,0,0,0,0,1.00032611823978,-1.3086753902769e-14,0.110749391855523,0.0322860681138554,0,0,0,0.025938567381328,0.00716896441737391
53,-0.854092530642002,0.854415328156068,0,0,0,0,1.00032284961879,-2.39391839684799e-15,0.109480701356086,0.0321211414447871,0,0,0,0.0256287724868082,0.00699813002439698
53.2,-0.849831374935669,0.85015092936961,0,0,0,0,1.0003196054969,9.56179579958416e-15,0.10822200086009,0.031956970079422,0,0,0,0.0253204338503291,0.00682975259152953
53.4,-0.845551932274361,0.845868267577609,0,0,0,0,1.00031638534254,-2.29677388219329e-15,0.106973085134148,0.0317935261023763,0,0,0,0.0250135532378607,0.00666379675082523
53.6,-0.841254046088207,0.841567185678219,0,0,0,0,1.00031318862333,1.16157083951407e-14,0.105733750190309,0.0316307800025419,0,0,0,0.0247081324546503,0.00650022866731169
53.8,-0.836937557773162,0.837247524533702,0,0,0,0,1.0003100148052,9.08301212021456e-15,0.104503793003352,0.0314687005577425,0,0,0,0.0244041733464183,0.0063390160055222
54,-0.832602306656552,0.832909122935104,0,0,0,0,1.00030686335148,6.93889390390723e-18,0.10328301124146,0.0313072547178636,0,0,0,0.0241016778005982,0.00618012789940968
54.2,-0.828248129961836,0.828551817566148,0,0,0,0,1.00030373372206,8.28503932126523e-15,0.102071203009811,0.0311464074861574,0,0,0,0.0238006477476235,0.00602353492548496
54.4,-0.823874862772539,0.824175442966349,0,0,0,0,1.00030062537256,5.75234304633909e-15,0.100868166607325,0.0309861217991083,0,0,0,0.0235010851622646,0.00586920907903031
54.6,-0.819482337995352,0.819779831493312,0,0,0,0,1.00029753775354,1.01307850997046e-15,0.0996737002969127,0.0308263584053019,0,0,0,0.023202992065016,0.00571712375324577
54.8,-0.815070386322371,0.815364813284195,0,0,0,0,1.0002944703097,1.03528297046296e-14,0.098487602089176,0.0306670757433253,0,0,0,0.0229063705235374,0.00556725372119284
55,-0.810638836192453,0.810930216216329,0,0,0,0,1.00029142247916,-7.24420523567915e-15,0.0973096695399447,0.0305082298191163,0,0,0,0.02261122265415,0.00541957512040523
55.2,-0.806187513751653,0.806475865866948,0,0,0,0,1.00028839369276,2.67286193178506e-14,0.0961396995622729,0.0303497740834112,0,0,0,0.0223175506233924,0.00527406544004054
55.4,-0.801716242812743,0.802001585472027,0,0,0,0,1.00028538337337,-4.85722573273506e-16,0.0949774882525786,0.0301916593089777,0,0,0,0.0220253566496357,0.00513070351045101
55.6,-0.797224844813751,0.797507195884188,0,0,0,0,1.00028239093525,-1.48492329543615e-15,0.0938228307325756,0.0300338334692731,0,0,0,0.0217346430047634,0.00498946949505324
55.8,-0.792713138775526,0.792992515529661,0,0,0,0,1.00027941578346,-1.22818422099158e-15,0.0926755210060992,0.0298762416176183,0,0,0,0.0214454120159169,0.00485034488438008
56,-0.78818094125828,0.78845736036427,0,0,0,0,1.00027645731327,1.16989751219876e-14,0.0915353518325386,0.0297188257685851,0,0,0,0.0211576660673113,0.00471331249219819
56.2,-0.783628066317084,0.783901543828409,0,0,0,0,1.00027351490971,1.56125112837913e-14,0.0904021146167826,0.0295615247814983,0,0,0,0.0208714076021231,0.00457835645357581
56.4,-0.779054325456292,0.779324876800998,0,0,0,0,1.00027058794702,3.54577478489659e-15,0.0892755993166268,0.029404274247002,0,0,0,0.0205866391244533,0.0044454622247854
56.6,-0.774459527582847,0.774727167552368,0,0,0,0,1.00026767578829,-2.45914399954472e-14,0.0881555943681096,0.0292470063771801,0,0,0,0.0203033632013712,0.00431461658492535
56.8,-0.76984347895846,0.770108221696074,0,0,0,0,1.00026477778507,7.45931094670027e-15,0.0870418866295641,0.0290896499000621,0,0,0,0.0200215824650392,0.00418580763914362
57,-0.765205983150603,0.765467842139571,0,0,0,0,1.00026189327703,2.80400702656891e-14,0.0859342613446802,0.0289321299588825,0,0,0,0.0197412996149256,0.00405902482334498
57.2,-0.760546840982306,0.76080582903376,0,0,0,0,1.00025902159175,-1.16573417585641e-14,0.0848325021259306,0.0287743680175581,0,0,0,0.0194625174201075,0.00393425891026139
57.4,-0.755865850480697,0.756121979721334,0,0,0,0,1.00025616204453,2.31065167000111e-15,0.0837363909585946,0.0286162817727702,0,0,0,0.0191852387216681,0.00381150201676276
57.6,-0.75116280682427,0.751416088683921,0,0,0,0,1.00025331393821,-7.53563877964325e-15,0.0826457082255591,0.0284577850730322,0,0,0,0.0189094664351931,0.00369074761228304
57.8,-0.746437502288834,0.746687947487975,0,0,0,0,1.00025047656316,-3.18495230189342e-14,0.0815602327546401,0.0282987878467426,0,0,0,0.0186352035533713,0.0035719905282331
58,-0.741689726192097,0.741937344729377,0,0,0,0,1.00024764919728,-1.13520304267922e-14,0.0804797418880568,0.0281391960391758,0,0,0,0.0183624531487024,0.00345522696826905
58.2,-0.736919264836867,0.73716406597672,0,0,0,0,1.0002448311061,-2.49245069028348e-14,0.0794040115747566,0.0279789115594948,0,0,0,0.0180912183763189,0.00334045451928205
58.4,-0.732125901452793,0.732367893713227,0,0,0,0,1.00024202154292,5.41233724504764e-15,0.078332816486699,0.0278178322393569,0,0,0,0.0178215024769261,0.00322767216297085
58.6,-0.727309416136646,0.727548607277278,0,0,0,0,1.00023921974911,-7.45931094670027e-15,0.0772659301584034,0.0276558518029583,0,0,0,0.0175533087798658,0.00311688028785666
58.8,-0.72246958579106,0.72270598280149,0,0,0,0,1.0002364249544,-2.23501772644852e-14,0.0762031251513114,0.0274928598507006,0,0,0,0.0172866407063103,0.00300808070159547
59,-0.717606184061711,0.717839793150317,0,0,0,0,1.00023363637733,-5.41233724504764e-16,0.0751441732421528,0.0273287418563848,0,0,0,0.0170215017725905,0.00290127664344039
59.2,-0.712718981272878,0.712949807856125,0,0,0,0,1.00023085322575,1.22818422099158e-15,0.0740888456358874,0.0271633791793297,0,0,0,0.0167578955936677,0.00279647279670382
59.4,-0.707807744361339,0.708035793053696,0,0,0,0,1.00022807469744,-6.45317133063372e-15,0.0730369132034361,0.0269966490925446,0,0,0,0.0164958258867517,0.00269367530106611
59.6,-0.702872236808561,0.703097511413114,0,0,0,0,1.00022529998078,-2.98372437868011e-16,0.0719881467435808,0.0268284248273662,0,0,0,0.0162352964750753,0.00259289176457571
59.8,-0.697912218571128,0.698134722070984,0,0,0,0,1.0002225282556,-7.99360577730113e-15,0.0709423172689463,0.0266585756356083,0,0,0,0.0159763112918304,0.00249413127518404
60,-0.692927446009356,0.693147180559945,0,0,0,0,1.00021975869399,2.05391259555654e-15,0.0698991963157838,0.0264869668701963,0,0,0,0.0157188743842736,0.00239740441165712
60.2,-0.687917671814046,0.688134638736401,0,0,0,0,1.00021699046138,-1.20806142867025e-14,0.0688585562764996,0.0263134600845935,0,0,0,0.0154629899180096,0.00230272325370522
60.4,-0.682882644931328,0.683096844706444,0,0,0,0,1.00021422271753,-2.55975796115138e-14,0.0678201707546112,0.0261379131521827,0,0,0,0.0152086621814594,0.00221010139117305
60.6,-0.677822110485521,0.678033542749897,0,0,0,0,1.00021145461775,-2.17534323887492e-14,0.0667838149406024,0.0259601804056727,0,0,0,0.0149558955905232,0.00211955393213295
60.8,-0.672735809699984,0.672944473242426,0,0,0,0,1.00020868531419,-1.3690437672409e-14,0.0657492660076883,0.0257801127972496,0,0,0,0.0147046946934454,0.00203109750972688
61,-0.667623479815875,0.667829372575655,0,0,0,0,1.00020591395715,1.3985340663325e-14,0.0647163035260286,0.025597558079838,0,0,0,0.014455064175892,0.00194475028760527
61.2,-0.66248485400877,0.662687973075237,0,0,0,0,1.00020313969654,6.00908212078366e-15,0.0636847098934214,0.0254123610094354,0,0,0,0.0142070088662495,0.00186053196381576
61.4,-0.657319661303091,0.657520002916794,0,0,0,0,1.00020036168342,-6.42194630806614e-15,0.0626542707809122,0.025224363568992,0,0,0,0.0139605337411558,0.00177846377299975
61.6,-0.652127626484264,0.65232518603969,0,0,0,0,1.0001975790716,-9.69016533680644e-15,0.0616247755905602,0.0250334052132126,0,0,0,0.0137156439312727,0.00169856848676232
61.8,-0.646908470008563,0.647103242058539,0,0,0,0,1.00019479101928,3.20923843055709e-15,0.0605960179232364,0.0248393231343779,0,0,0,0.0134723447273122,0.00162087041208836
62,-0.641661907910561,0.641853886172395,0,0,0,0,1.00019199669084,5.54417622922188e-15,0.0595677960535259,0.0246419525485622,0,0,0,0.0132306415863275,0.00154539538768823
62.2,-0.636387651708143,0.636576829071551,0,0,0,0,1.00018919525857,6.81746326058885e-15,0.0585399134088235,0.0244411270017133,0,0,0,0.0129905401382799,0.00147217077816649
62.4,-0.631085408304984,0.631271776841858,0,0,0,0,1.00018638590457,-3.45903861109775e-15,0.0575121790490861,0.0242366786944852,0,0,0,0.0127520461928954,0.00140122546592035
62.6,-0.62575487989046,0.625938430866495,0,0,0,0,1.00018356782255,-4.62477278695417e-15,0.0564844081438878,0.0240284388249503,0,0,0,0.0125151657468227,0.00133258984068847
62.8,-0.620395763836887,0.62057648772511,0,0,0,0,1.00018074021977,2.74780198594726e-14,0.055456422442746,0.0238162379476635,0,0,0,0.0122799049911077,0.00126629578668601
63,-0.615007752594046,0.615185639090233,0,0,0,0,1.00017790231893,-7.59461937782646e-15,0.054428050734594,0.023599906347479,0,0,0,0.0120462703189967,0.00120237666727919
63.2,-0.609590533580892,0.609765571620894,0,0,0,0,1.00017505336005,-3.44516082328994e-14,0.0533991292925867,0.0233792744268256,0,0,0,0.0118142683340842,0.00114086730717089
63.4,-0.604143789074398,0.60431596685333,0,0,0,0,1.00017219260238,2.15799600411515e-14,0.052369502298761,0.0231541731034761,0,0,0,0.0115839058588214,0.00108180397208866
63.6,-0.598667196095427,0.598836501088704,0,0,0,0,1.00016931932618,-6.80011602582908e-15,0.051339022244184,0.0229244342169225,0,0,0,0.011355189943399,0.0010252243459881
63.8,-0.593160426291573,0.593326845277734,0,0,0,0,1.00016643283457,9.54444856482439e-15,0.0503075503004617,0.022689890941671,0,0,0,0.0111281278750237,0.00097116750580627
64,-0.587623145816875,0.587786664902119,0,0,0,0,1.00016353245522,-6.02642935554343e-15,0.0492749566556528,0.0224503782028933,0,0,0,0.010902727187604,0.000919673893824147
64.2,-0.582055015208318,0.582215619852664,0,0,0,0,1.00016061754196,2.04350425470068e-14,0.0482411208112033,0.0222057330933846,0,0,0,0.0106789956718642,0.000870785287721276
64.4,-0.576455689259023,0.576613364303994,0,0,0,0,1.00015768747633,-1.36834987785051e-14,0.0472059318329639,0.021955795287162,0,0,0,0.0104569413859047,0.000824544768432056
64.6,-0.570824816888048,0.570979546585738,0,0,0,0,1.00015474166895,2.22044604925031e-15,0.0461692885521922,0.0217004074478236,0,0,0,0.0102365726662297,0.000780996685939552
64.8,-0.565162041006682,0.56531380905006,0,0,0,0,1.00015177956073,1.30832844558171e-14,0.0451310997094837,0.0214394156267703,0,0,0,0.0100178981392612,0.000740186623171863
65,-0.559466998381137,0.559615787935423,0,0,0,0,1.000148800624,1.21708199074533e-14,0.0440912840373619,0.0211726696491333,0,0,0,0.00980092673336172,0.000702161358194718
65.2,-0.553739319491527,0.553885113226438,0,0,0,0,1.00014580436333,-1.51510748391814e-14,0.0430497702749826,0.0209000234829359,0,0,0,0.00958566769138689,0.000666968824927267
65.4,-0.547978628387025,0.548121408509687,0,0,0,0,1.00014279031623,2.69922972861991e-14,0.0420064971096719,0.0206213355882393,0,0,0,0.00937213058379231,0.000634658072641816
65.6,-0.542184542537073,0.542324290825362,0,0,0,0,1.00013975805354,-4.38538094726937e-15,0.0409614130388815,0.0203364692418415,0,0,0,0.00916032532231747,0.000605279224547042
65.8,-0.53635667267852,0.536493370514568,0,0,0,0,1.00013670717962,-5.82520143233012e-15,0.0399144761480359,0.0200452928349085,0,0,0,0.00895026217427226,0.000578883435797553
66,-0.530494622658571,0.53062825106217,0,0,0,0,1.00013363733227,-4.91967577787022e-15,0.0388656537966878,0.0197476801377222,0,0,0,0.00874195177745201,0.00055552285132148
66.2,-0.5245979892734,0.524728528934982,0,0,0,0,1.00013054818225,6.64746035994312e-15,0.0378149222084469,0.0194435105285395,0,0,0,0.00853540515570779,0.000535250563915597
66.4,-0.518666362102281,0.518793793415167,0,0,0,0,1.0001274394326,2.10248485288389e-15,0.0367622659579259,0.0191326691809514,0,0,0,0.00833063373520011,0.000518120573122074
66.6,-0.512699323337117,0.512823626428664,0,0,0,0,1.0001243108175,1.2712053631958e-14,0.0357076773491625,0.0188150472047547,0,0,0,0.00812764936136495,0.00050418774547651
66.8,-0.506696447607181,0.506817602368452,0,0,0,0,1.00012116210081,5.44703171456717e-16,0.0346511556793181,0.0184905417338688,0,0,0,0.00792646431662236,0.000493507776801652
67,-0.500657301798939,0.500775287912489,0,0,0,0,1.00011799307419,8.20177259441834e-15,0.0335927063826362,0.0181590559549097,0,0,0,0.00772709133885893,0.000486137157313178
67.2,-0.494581444870772,0.494696241836107,0,0,0,0,1.00011480355476,-1.22402088464924e-14,0.0325323400490682,0.0178204990681011,0,0,0,0.00752954364071627,0.000482133140404064
67.4,-0.488468427662426,0.488580014818671,0,0,0,0,1.00011159338232,2.35228503342455e-15,0.0314700713140618,0.0174747861727183,0,0,0,0.00733383492971941,0.000481553716073549
67.6,-0.482317792699018,0.482426149244293,0,0,0,0,1.00010836241606,-8.40646996458361e-15,0.0304059176156101,0.0171218380671668,0,0,0,0.00713997942927952,0.000484457590066151
67.8,-0.476129073989378,0.476234178996372,0,0,0,0,1.00010511053072,-3.09995085157055e-15,0.0293398978177705,0.0167615809552155,0,0,0,0.00694799190060712,0.000490904169874404
68,-0.469901796818548,0.470003629245735,0,0,0,0,1.00010183761228,-2.45775622076394e-14,0.0282720306997627,0.0163939460482655,0,0,0,0.00675788766557287,0.000500953558834715
68.2,-0.463635477534184,0.46373401623214,0,0,0,0,1.00009854355305,1.96943156227647e-14,0.0272023333132917,0.0160188690558069,0,0,0,0.00656968263055414,0.000514666559601417
68.4,-0.457329623326636,0.457424847038875,0,0,0,0,1.00009522824616,-4.46170878021235e-15,0.0261308192108685,0.0156362895554649,0,0,0,0.00638339331130706,0.000532104688316989
68.6,-0.450983732002441,0.451075619360217,0,0,0,0,1.00009189157955,4.25354196309513e-15,0.0250574965521822,0.0152461502378722,0,0,0,0.00619903685890481,0.000553330200806341
68.8,-0.444597291750945,0.444685821261446,0,0,0,0,1.00008853342935,-3.24913707050456e-15,0.0239823660942701,0.0148483960202509,0,0,0,0.00601663108678406,0.000578406132109566
69,-0.438169780903755,0.438254930931155,0,0,0,0,1.00008515365277,7.46624984060418e-15,0.0229054190759272,0.0144429730276036,0,0,0,0.00583619449894315,0.000607396350634317
69.2,-0.431700667686698,0.431782416425538,0,0,0,0,1.00008175208036,1.25351118374084e-14,0.0218266350056604,0.0140298274398278,0,0,0,0.005657746319336,0.000640365628159198
69.4,-0.425189409963946,0.425267735404344,0,0,0,0,1.00007832850792,-8.62851456950864e-15,0.0207459793651503,0.0136089042064279,0,0,0,0.00548130652250792,0.000677379726858729
69.6,-0.418635454973948,0.418710334858185,0,0,0,0,1.00007488268781,-2.34187669256869e-14,0.019663401240258,0.0131801456313209,0,0,0,0.00530689586552028,0.000718505504451306
69.8,-0.412038239056778,0.412109650826833,0,0,0,0,1.00007141431994,-1.03857894506731e-14,0.0185788308924145,0.0127434898317508,0,0,0,0.00513453592121223,0.000763811038498838
70,-0.405397187372512,0.405465108108164,0,0,0,0,1.00006792304232,-1.55153667691366e-14,0.0174921772840027,0.012298869076764,0,0,0,0.0049642491128494,0.000813365770811838
70.2,-0.398711713610197,0.398776119957368,0,0,0,0,1.0000644084213,1.91738985799716e-14,0.0164033255718731,0.0118462080118262,0,0,0,0.00479605875021037,0.000867240672838887
70.4,-0.391981219686985,0.392042087776023,0,0,0,0,1.00006086994154,7.6588041464376e-15,0.0153121345826146,0.0113854217761782,0,0,0,0.00462998906716341,0.000925508432844714
70.6,-0.385205095436944,0.385262400790645,0,0,0,0,1.00005730699568,8.68229099726392e-15,0.0142184342850644,0.0109164140219112,0,0,0,0.00446606526078738,0.000988243665606338
70.8,-0.378382718289098,0.378436435720245,0,0,0,0,1.00005371887395,-1.32012456521835e-15,0.0131220232737035,0.0104390748424252,0,0,0,0.00430431353209214,0.00105552314528271
71,-0.371513452934152,0.371563556432483,0,0,0,0,1.00005010475353,-1.51979123730328e-14,0.0120226662785612,0.0099532786204718,0,0,0,0.0041447611283954,0.00112742606203703
71.2,-0.364596650979394,0.364643113587909,0,0,0,0,1.00004646368792,6.46097758627562e-15,0.0109200917158931,0.00945888180525039,0,0,0,0.00398743638741448,0.00120403430291541
71.4,-0.35763165059121,0.357674444271816,0,0,0,0,1.00004279459627,-1.67270711171064e-14,0.009813989294113,0.00895572062894765,0,0,0,0.00383236878313369,0.00128543275740718
71.6,-0.35061777612464,0.350656871613169,0,0,0,0,1.00003909625277,1.97827865200395e-14,0.00870400768975621,0.00844360877421549,0,0,0,0.00367958897350913,0.00137170964803299
71.8,-0.343554337739359,0.343589704390077,0,0,0,0,1.00003536727613,1.30642024975813e-14,0.00758975230595648,0.0079223350026834,0,0,0,0.00352912885007559,0.00146295688622634
72,-0.336440631001466,0.336472236621213,0,0,0,0,1.00003160611921,-2.62637134262889e-15,0.00647078312777512,0.00739166075746243,0,0,0,0.00338102158952214,0.00155927045369321
72.2,-0.329275936470417,0.3293037471426,0,0,0,0,1.0000278110589,-2.83106871279415e-15,0.00534661268512585,0.00685131775009023,0,0,0,0.00323530170730514,0.0016607508093531
72.4,-0.322059519270407,0.322083499169113,0,0,0,0,1.00002398018623,-5.01204980296599e-15,0.00421670413472671,0.006301005544227,0,0,0,0.00309200511337083,0.00176750332188492
72.6,-0.314790628645507,0.314810739840034,0,0,0,0,1.00002011139676,1.27823099327351e-14,0.00308046947053992,0.00574038914767857,0,0,0,0.00295116917006215,0.00187963872782287
72.8,-0.307468497497791,0.307484699747961,0,0,0,0,1.00001620238143,-1.43500662741491e-14,0.00193726787026397,0.00516909662371519,0,0,0,0.00281283275228797,0.00199727361507304
73,-0.300092341907689,0.300104592450338,0,0,0,0,1.00001225061769,1.86103302907137e-14,0.000786404184569453,0.00458671673310235,0,0,0,0.00267703631003698,0.00212053093165093
73.2,-0.292661360635757,0.29266961396282,0,0,0,0,1.00000825336112,-5.17923377796325e-15,-0.000372872427836042,0.00399279661599002,0,0,0,0.00254382193332256,0.00224954051937644
73.4,-0.285174734605012,0.285178942233662,0,0,0,0,1.0000042076375,-1.36045688603481e-15,-0.00154136971590048,0.00338683952446241,0,0,0,0.00241323341964965,0.00238443967220589
73.6,-0.277631626362974,0.27763173659828,0,0,0,0,1.00000011023531,-1.81825041134509e-14,-0.0027199534046294,0.00276830261248628,0,0,0,0.00228531634410088,0.00252537371883237
73.8,-0.270031179522475,0.27002713721306,0,0,0,0,0.999995957698755,6.57590301655908e-15,-0.00390954811772133,0.00213659479167734,0,0,0,0.00216011813214449,0.00267249662914808
74,-0.262372518180311,0.262364264467491,0,0,0,0,0.999991746321242,-4.09568212678124e-15,-0.00511113816094895,0.00149107465749601,0,0,0,0.00203768813527487,0.00282597164413464
74.2,-0.254654746312708,0.254642218373581,0,0,0,0,0.999987472139347,-6.76693943935103e-15,-0.00632576817340708,0.000831048490969111,0,0,0,0.0019180777096034,0.0029859719287329
74.4,-0.246876947146589,0.246860077931525,0,0,0,0,0.999983130927221,1.33413245728686e-14,-0.00755454365838945,0.000155768337369409,0,0,0,0.00180134029752764,0.00315268124724107
74.6,-0.239038182505543,0.2390169004705,0,0,0,0,0.999978718191418,1.3314436358991e-14,-0.00879863140695035,-0.000535569837160745,0,0,0,0.00168753151261694,0.00332629466080141
74.8,-0.231137492129348,0.231111720963387,0,0,0,0,0.999974229166113,-4.91490528831129e-15,-0.0100592598304376,-0.00124382791258846,0,0,0,0.00157670922786426,0.00350701924656006
75,-0.223173892965873,0.22314355131421,0,0,0,0,0.99996965880864,1.57911878018169e-14,-0.0113377192211572,-0.00196992730946432,0,0,0,0.00146893366746841,0.00369507483812194
75.2,-0.215146378434093,0.215111379616945,0,0,0,0,0.999965001795304,-7.255480938273e-15,-0.0126353619627511,-0.00271485061685445,0,0,0,0.00136426750232546,0.00389069478697368
75.4,-0.207053917656892,0.207014169384326,0,0,0,0,0.999960252517386,-4.26741975090295e-16,-0.0139536027134226,-0.00347964316109433,0,0,0,0.00126277594942652,0.00409412674460775
75.6,-0.198895454662293,0.198850858745165,0,0,0,0,0.999955405077255,-7.44369843541648e-15,-0.0152939185890621,-0.00426541452669281,0,0,0,0.0011645268753785,0.0043056334651529
75.8,-0.190669907551619,0.19062035960865,0,0,0,0,0.99995045328451,7.12277459236077e-15,-0.0166578493731264,-0.00507334004077568,0,0,0,0.00106959090428732,0.00452549362839352
76,-0.18237616763307,0.182321556793955,0,0,0,0,0.999945390652029,-1.30659372210573e-14,-0.0180469977836013,-0.00590466223640378,0,0,0,0.000978041530268627,0.00475400268314115
76.2,-0.174013098519064,0.173953307123438,0,0,0,0,0.999940210391843,7.4194123067528e-15,-0.0194630298270356,-0.0067606923104379,0,0,0,0.000889955234879971,0.00499147371100427
76.4,-0.165579535185618,0.165514438477573,0,0,0,0,0.9999349054107,-1.01099684179928e-14,-0.0209076752721511,-0.00764281159503156,0,0,0,0.000805411609801108,0.00523823831067625
76.6,-0.157074282991933,0.157003748809665,0,0,0,0,0.999929468305209,-3.63771512912336e-15,-0.0223827282739721,-0.00855247306135131,0,0,0,0.000724493485125715,0.00549464750292691
76.8,-0.148496116658229,0.148420005118273,0,0,0,0,0.999923891356454,3.22832038879284e-15,-0.0238900481815559,-0.00949120287753401,0,0,0,0.000647287063669412,0.00576107265652772
77,-0.139843779199764,0.139761942375159,0,0,0,0,0.999918166523936,-7.73686670285656e-15,-0.0254315605599056,-0.0104606020418288,0,0,0,0.00057388206174518,0.00603790643535964
77.2,-0.131115980814815,0.131028262406404,0,0,0,0,0.999912285438736,-1.26808286093905e-15,-0.0270092584567399,-0.0114623481135502,0,0,0,0.000504371856909395,0.00632556376693431
77.4,-0.122311397724261,0.122217632724249,0,0,0,0,0.999906239395788,-1.54633250648573e-14,-0.0286252039428833,-0.0124981970642705,0,0,0,0.000438853643239817,0.00662448283249247
77.6,-0.113428670960265,0.113328685307003,0,0,0,0,0.999900019345137,7.59982354825439e-15,-0.0302815299521479,-0.0135699852705997,0,0,0,0.000377428594771909,0.00693512607871695
77.8,-0.104466405101343,0.104360015324243,0,0,0,0,0.999893615882091,2.04350425470068e-15,-0.0319804424448108,-0.0146796316700191,0,0,0,0.000320202037792172,0.00725798125089454
78,-0.0954231669509528,0.0953101798043247,0,0,0,0,0.999887019236179,-1.68406955047828e-14,-0.0337242229137118,-0.0158291400980851,0,0,0,0.000267283632767626,0.00759356244706666
78.2,-0.0862974841565001,0.0861776962410522,0,0,0,0,0.999880219258838,6.09928774153445e-15,-0.0355152312492062,-0.0170206018244681,0,0,0,0.000218787566780081,0.00794241119230398
78.4,-0.0770878437654716,0.076961041136128,0,0,0,0,0.99987320540977,-4.55191440096314e-15,-0.0373559089734331,-0.0182561983014479,0,0,0,0.000174832757432685,0.00830509753170267
78.6,-0.0677926907151286,0.0676586484738151,0,0,0,0,0.999865966741946,-2.60902410786912e-15,-0.0392487828481781,-0.0195382041341822,0,0,0,0.000135543069305805,0.00868222114000786
78.8,-0.058410426251955,0.0582689081239758,0,0,0,0,0.999858491885239,-9.72139035937403e-15,-0.041196468855497,-0.0208689902787613,0,0,0,0.000101047544160268,0.0090744124448959
79,-0.0489394062767717,0.0487901641694318,0,0,0,0,0.99985076902871,1.07032438467769e-14,-0.0432016765412558,-0.022251027466765,0,0,0,7.14806462190084e-05,0.00948233375985921
79.2,-0.0393779396111045,0.0392207131532811,0,0,0,0,0.999842785901608,-1.73784597823357e-14,-0.0452672137048365,-0.0236868898497215,0,0,0,4.69825240048824e-05,0.00990668042130611
79.4,-0.0297242861800759,0.029558802241544,0,0,0,0,0.99983452975318,-1.59663948728905e-14,-0.0473959914076351,-0.0251792588477026,0,0,0,2.76992903732052e-05,0.0103481819228709
79.6,-0.0199766551067302,0.0198026272961799,0,0,0,0,0.999825987331411,1.10050857315969e-14,-0.0495910292643036,-0.026730927178924,0,0,0,1.37833225541154e-05,0.0108076030379863
79.8,-0.010133202712292,0.00995033085316809,0,0,0,0,0.999817144860915,7.85829734617494e-15,-0.0518554609674312,-0.0283448030351129,0,0,0,5.39358421280413e-06,0.0112857449194559
80,-0.000192030416461503,0,0,0,0,0,0.999807988020199,-7.14706072102445e-16,-0.0541925399843909,-0.0300239143564287,0,0,0,2.69597174680581e-06,0.0117834461620152
