t,LE11,LE22,LE33,LE12,LE13,LE23,J,S11,S22,S33,S12,S13,S23,psiE,psiNE
0,0,0,0,0,0,0,1,0,0,0,0,0,0,0,0
0.2,0.00214764098306837,0.00214764098306837,0.00995033085316809,0,0,0,1.01434756511063,-5.66573291814433e-09,-5.66573291814433e-09,0.000629295537217955,0,0,0,2.06951727384879e-06,1.04848774310823e-06
0.4,0.00413618296281896,0.00413618296281896,0.0198026272961797,0,0,0,1.02847281001902,-3.84296414617869e-09,-3.84296414617869e-09,0.00124882513336233,0,0,0,8.09625775610029e-06,4.17024307495484e-06
0.6,0.00597377055847372,0.00597377055847372,0.0295588022415444,0,0,0,1.04237977401909,-2.44243063361044e-09,-2.44243063361044e-09,0.00185878177333869,0,0,0,1.78239152837666e-05,9.32688153062502e-06
0.8,0.00766823037325877,0.00766823037539681,0.0392207131532813,0,0,0,1.0560728544935,-1.3836698823386e-09,-1.38350808196949e-09,0.00245935816526305,0,0,0,3.10165997043741e-05,1.6476763892124e-05
1,0.00922692047429327,0.00922692047609423,0.048790164169432,0,0,0,1.06955642358059,-6.03970806960924e-10,-6.03837237373242e-10,0.00305074594605262,0,0,0,4.74569395443236e-05,2.55756203704072e-05
1.2,0.010656751296432,0.0106567512908477,0.0582689081239758,0,0,0,1.08283479303796,-4.51913437227169e-11,-4.55986554938337e-11,0.00363313411343476,0,0,0,6.69443686906501e-05,3.65770458530076e-05
1.4,0.0119642133384095,0.0119642133384511,0.0676586484738149,0,0,0,1.09591219925789,3.36367093466822e-10,3.36370343904935e-10,0.00420670838671367,0,0,0,8.92935910866762e-05,4.94329135793706e-05
1.6,0.0131554066632862,0.0131554066580671,0.0769610411361284,0,0,0,1.1087927983718,5.77666723266743e-10,5.77299715627186e-10,0.00477165098162071,0,0,0,0.000114333208060288,6.40937268334209e-05
1.8,0.0142360698166543,0.0142360698136551,0.0861776962410524,0,0,0,1.12148066650841,7.13198323098671e-10,7.12991452987352e-10,0.00532814060686911,0,0,0,0.000141904490902944,8.05089207456751e-05
2,0.01521160713604,0.0152116071360243,0.0953101798043249,0,0,0,1.13397980224599,7.66660305118877e-10,7.66660099120464e-10,0.00587635259318888,0,0,0,0.000171860281561744,9.86271234463421e-05
2.2,0.016087114605354,0.0160871146062597,0.104360015324243,0,0,0,1.14629413141414,7.60054583506808e-10,7.60116195246824e-10,0.00641645908365329,0,0,0,0.00020406400758531,0.000118396381650031
2.4,0.0168674036416721,0.0168674036356451,0.113328685307003,0,0,0,1.15842751225142,7.1158789364395e-10,7.11191686271484e-10,0.00694862926456754,0,0,0,0.000238388796976553,0.000139764356945524
2.6,0.0175570230258554,0.0175570230222711,0.122217632724249,0,0,0,1.17038374097301,6.35790320998447e-10,6.35558482578458e-10,0.00747302960772761,0,0,0,0.000274716681538377,0.00016267849650754
2.8,0.0181602789906425,0.0181602789898364,0.131028262406404,0,0,0,1.18216655719211,5.43878382868596e-10,5.43827545062409e-10,0.00798982411074019,0,0,0,0.00031293787809183,0.000187086182018647
3,0.0186812535630909,0.0186812535606373,0.139761942375159,0,0,0,1.1937796491622,4.45037301715495e-10,4.4488429216602e-10,0.0084991745223327,0,0,0,0.000352950138646884,0.000212934859502375
3.2,0.0191238212352316,0.0191238212355211,0.148420005118273,0,0,0,1.20522665849329,3.47161000901347e-10,3.47179500426176e-10,0.00900124054717524,0,0,0,0.000394658161338868,0.000240172152853915
3.4,0.0194916640535885,0.01949166405366,0.157003748809665,0,0,0,1.21651118415762,2.55588797088563e-10,2.55593880262028e-10,0.00949618002597072,0,0,0,0.000437973055027768,0.000268745963417288
3.6,0.0197882944852511,0.0197882944865381,0.165514438477573,0,0,0,1.22763680852466,7.84941312035464e-10,7.85018986881186e-10,0.00998414885193122,0,0,0,0.000482811881704756,0.000298604512759692
3.8,0.0200170276907586,0.020017027690875,0.173953307123438,0,0,0,1.23860700180484,4.96087335707246e-10,4.96093980999202e-10,0.010465302106979,0,0,0,0.000529097081304189,0.000329696610849523
4,0.0201810585566325,0.0201810585563803,0.182321556793955,0,0,0,1.24942528540021,2.6930900261582e-10,2.69294688545058e-10,0.0109397924790493,0,0,0,0.000576756276622337,0.000361971411308337
4.2,0.0201810585566325,0.0201810585563803,0.19062035960865,0,0,0,1.25983716277854,-6.96871637607477e-06,-6.96871639027045e-06,0.0114103953922332,0,0,0,0.000625357735071258,0.000395952490183642
4.4,0.0203270256084522,0.0203270256086084,0.198850858745165,0,0,0,1.27061992330642,2.33354995916868e-10,2.33364669602332e-10,0.0118693893694998,0,0,0,0.000675930131064659,0.000429868843934238
4.6,0.0203270256084522,0.0203270256086084,0.207014169384326,0,0,0,1.28103484071057,8.56546405788271e-07,8.56546415507926e-07,0.0123244750207442,0,0,0,0.000727368355990269,0.000465317124175044
4.8,0.0203270256084522,0.0203270256086084,0.215111379616945,0,0,0,1.29144975811472,5.43730632627821e-06,5.43730633625894e-06,0.0127721117782491,0,0,0,0.00078014006584354,0.000501404882680251
5,0.020196815641687,0.020196815640681,0.22314355131421,0,0,0,1.30152568814654,4.51863845500611e-06,4.51863840228786e-06,0.0132158794052501,0,0,0,0.00083368840909123,0.000538923558981613
5.2,0.0200557838731011,0.0200557838714935,0.231111720963387,0,0,0,1.31156789599197,6.23703815153323e-06,6.23703806707215e-06,0.0136528938419893,0,0,0,0.000888410177565886,0.000577082396456349
5.4,0.0198675503901871,0.0198675503901675,0.2390169004705,0,0,0,1.3214795779461,7.89732559795201e-06,7.8973255979815e-06,0.0140842996375199,0,0,0,0.000944111183189087,0.000616083033923625
5.6,0.0195016358403803,0.0195016358405057,0.246860077931526,0,0,0,1.33091057337976,2.30800795142372e-10,2.30808362006174e-10,0.0145137372868272,0,0,0,0.00100020636885442,0.00065686121569237
5.8,0.0192051352199117,0.0192051352202371,0.254642218373581,0,0,0,1.34051315053017,3.1363950846186e-10,3.13657373511578e-10,0.0149349061549562,0,0,0,0.00105764571026335,0.000697603044202075
6,0.0188689816780025,0.0188689816769845,0.262364264467491,0,0,0,1.34999680775616,4.0570373883303e-10,4.05653379810522e-10,0.0153508591768282,0,0,0,0.00111594438288845,0.00073905766484451
6.2,0.0184951306303382,0.018495130629368,0.27002713721306,0,0,0,1.35936461873454,5.04631739173256e-10,5.04584533010666e-10,0.0157617311684805,0,0,0,0.00117506648222986,0.000781182534058334
6.4,0.0180854540811391,0.0180854540813715,0.27763173659828,0,0,0,1.36861960564272,6.09633076659177e-10,6.09645324674279e-10,0.0161676546842112,0,0,0,0.001234978170394,0.000823935988850202
6.6,0.0176417435798727,0.0176417435793088,0.285178942233662,0,0,0,1.37776473595774,7.18499245343229e-10,7.18472848923457e-10,0.0165687598821342,0,0,0,0.00129564752805062,0.000867277256190902
6.8,0.0171657130329823,0.0171657130353059,0.29266961396282,0,0,0,1.38680291949773,8.30159659764851e-10,8.30272430668577e-10,0.0169651743887383,0,0,0,0.00135704441731542,0.000911166459590219
7,0.0166590012830316,0.0166590012825767,0.300104592450338,0,0,0,1.39573700535947,9.43279379085615e-10,9.43258852102724e-10,0.0173570231685281,0,0,0,0.00141914035424247,0.000955564624190457
7.2,0.0161231745508487,0.0161231745504347,0.307484699747961,0,0,0,1.40456977910105,1.05684564224995e-09,1.05682869400159e-09,0.0177444283976978,0,0,0,0.00148190839075996,0.00100043367958708
7.4,0.0155597287393045,0.0155597287371102,0.314810739840034,0,0,0,1.41330395996542,1.16909797120979e-09,1.1689982931315e-09,0.0181275093459869,0,0,0,0.00154532300507882,0.00104573646127467
7.6,0.0149700916643104,0.0149700916642822,0.322083499169113,0,0,0,1.42194219846268,1.27958310093546e-09,1.27958302720971e-09,0.0185063822654069,0,0,0,0.00160936000047105,0.0010914367099054
7.8,0.0143556251516494,0.0143556251536186,0.3293037471426,0,0,0,1.43048707397434,1.38682032524429e-09,1.38691064795887e-09,0.0188811602907837,0,0,0,0.00167399641133577,0.00113749906970092
8,0.0137176271224705,0.0137176271203241,0.336472236621213,0,0,0,1.43894109280343,1.49062882783685e-09,1.49053487434603e-09,0.0192519533491948,0,0,0,0.00173921041669994,0.00118388908477579
8.2,0.0130573335661555,0.0130573335647991,0.343589704390077,0,0,0,1.44730668633826,1.59010628535822e-09,1.59004819207109e-09,0.0196188680826415,0,0,0,0.00180498126015512,0.00123057319467912
8.4,0.0123759205195899,0.0123759205158943,0.350656871613169,0,0,0,1.45558620955487,1.68436240562814e-09,1.68420231320271e-09,0.0199820077825117,0,0,0,0.00187128917613352,0.00127751872854626
8.6,0.0116745060022609,0.0116745060036576,0.357674444271816,0,0,0,1.46378193988277,1.77353665954672e-09,1.77359824569956e-09,0.0203414723361235,0,0,0,0.00193811532214017,0.0013246938978866
8.8,0.0109541519065958,0.0109541519031038,0.364643113587909,0,0,0,1.47189607618655,1.85679177588938e-09,1.85664410321668e-09,0.020697358188106,0,0,0,0.00200544171616732,0.00137206778904095
9,0.0102158658929837,0.0102158658929323,0.371563556432483,0,0,0,1.47993073827544,1.93406247007283e-09,1.93406231915189e-09,0.0210497583126359,0,0,0,0.00207325117955605,0.00141961035390352
9.2,0.00946060326051212,0.00946060326047582,0.378436435720245,0,0,0,1.48788796649332,2.00475744772249e-09,2.00475741823219e-09,0.0213987622008823,0,0,0,0.00214152728427178,0.0014672924006614
9.4,0.00868926882038644,0.00868926882311751,0.385262400790645,0,0,0,1.49576972181236,2.06969988543471e-09,2.06981301629355e-09,0.0217444558591773,0,0,0,0.00221025430491362,0.00151508558303789
9.6,0.00790271871303428,0.00790271871188434,0.392042087776024,0,0,0,1.50357788595518,2.12790756889958e-09,2.12786107831042e-09,0.0220869218222256,0,0,0,0.00227941717443258,0.00156296238992629
9.8,0.00710176227110129,0.00710176227051682,0.398776119957368,0,0,0,1.51131426206189,2.17920878130967e-09,2.17918556724012e-09,0.0224262391756403,0,0,0,0.00234900144404907,0.00161089613346858
10,0.00628716385747887,0.00628716385865583,0.405465108108164,0,0,0,1.5189805754722,2.22435432052637e-09,2.22440230124299e-09,0.0227624835914539,0,0,0,0.00241899324645167,0.00165886093729237
10.2,0.00545964465142666,0.00545964464956545,0.412109650826833,0,0,0,1.52657847470338,2.26278488394543e-09,2.26271223112418e-09,0.023095727374993,0,0,0,0.00248937926215204,0.00170683172463451
10.4,0.00461988449231768,0.00461988449103863,0.418710334858185,0,0,0,1.53410953288552,2.29637807467459e-09,2.29632907741001e-09,0.0234260395196519,0,0,0,0.00256014668913773,0.00175478420530125
10.6,0.00376852358755891,0.00376852358497696,0.425267735404344,0,0,0,1.54157524897648,2.32229621123514e-09,2.32219671096601e-09,0.0237534857756153,0,0,0,0.00263128321461874,0.00180269486429354
10.8,0.00290616440224109,0.00290616440614238,0.431782416425538,0,0,0,1.54897704987496,2.34369964581538e-09,2.34385088074274e-09,0.0240781287199653,0,0,0,0.00270277699027278,0.00185054094737602
11,0.00203337329865903,0.00203337329729379,0.438254930931155,0,0,0,1.55631629189789,2.35975437974656e-09,2.35970337887637e-09,0.0244000278431836,0,0,0,0.00277461660859447,0.0018983004501034
11.2,0.00115068228321732,0.00115068227774778,0.444685821261446,0,0,0,1.56359426298348,2.36891603555556e-09,2.3687097353009e-09,0.0247192396368297,0,0,0,0.00284679108212257,0.00194595210448748
11.4,0.000258590777034819,0.000258590777037705,0.451075619360217,0,0,0,1.57081218504535,2.37435399466635e-09,2.37435420109844e-09,0.025035817687381,0,0,0,0.00291928982453852,0.00199347536569595
11.6,-0.000642432828044657,-0.00064243282656189,0.457424847038875,0,0,0,1.57797121590233,2.37403149395965e-09,2.3740843683312e-09,0.0253498127813604,0,0,0,0.00299210263270631,0.00204085040134655
11.8,-0.00155194944989235,-0.00155194944259341,0.46373401623214,0,0,0,1.58507245202238,2.36890591864825e-09,2.3691718361446e-09,0.0256612730076238,0,0,0,0.0030652196712144,0.0020880580778615
12,-0.00246954773254698,-0.00246954772734297,0.470003629245736,0,0,0,1.59211693090496,2.36048005620992e-09,2.36066742022312e-09,0.0259702438683441,0,0,0,0.0031386314576672,0.00213507994906325
12.2,-0.0033948425350683,-0.0033948425325383,0.476234178996372,0,0,0,1.59910563355208,2.34724046102586e-09,2.34733028847689e-09,0.0262767683930236,0,0,0,0.00321232884923752,0.00218189824500089
12.4,-0.00432747333250674,-0.00432747333500431,0.482426149244293,0,0,0,1.60603948729129,2.33047176868839e-09,2.33038041121125e-09,0.0265808872517437,0,0,0,0.00328630303070242,0.00222849585971077
12.6,-0.00526710279112536,-0.00526710279304559,0.488580014818671,0,0,0,1.61291936829288,2.30973920545274e-09,2.30966978355396e-09,0.0268826388739166,0,0,0,0.00336054550299649,0.00227485634088842
12.8,-0.00621341528665025,-0.00621341528666355,0.494696241836107,0,0,0,1.61974610436804,2.28608096168592e-09,2.28608148904186e-09,0.0271820595654196,0,0,0,0.00343504807295805,0.00232096387872693
13,-0.00716611554322732,-0.00716611555114379,0.500775287912489,0,0,0,1.62652047757986,2.25925844178632e-09,2.25898250279244e-09,0.0274791836284119,0,0,0,0.0035098028435793,0.00236680329603067
13.2,-0.00812492729093557,-0.00812492728291011,0.506817602368452,0,0,0,1.63324322701757,2.22870911656403e-09,2.22898698457041e-09,0.0277740434792943,0,0,0,0.00358480220512895,0.0024123600379033
13.4,-0.00908959190269752,-0.00908959190072569,0.512823626428664,0,0,0,1.63991505149433,2.19583369369392e-09,2.19590267844239e-09,0.028066669766805,0,0,0,0.00366003882677172,0.00245762016208756
13.6,-0.010059867225752,-0.0100598672224616,0.518793793415168,0,0,0,1.6465366121995,2.16084753909551e-09,2.16096035683677e-09,0.0283570914892622,0,0,0,0.00373550564866464,0.00250257032974105
13.8,-0.0110355263345052,-0.011035526334912,0.524728528934982,0,0,0,1.65310853528933,2.12358090140308e-09,2.12356652921908e-09,0.0286453361106427,0,0,0,0.00381119587445729,0.0025471977966931
14,-0.0120163563884579,-0.0120163563917683,0.53062825106217,0,0,0,1.65963141454271,2.08422962395816e-09,2.08411667090846e-09,0.0289314296734969,0,0,0,0.00388710296428981,0.002591490404478
14.2,-0.0130021575345309,-0.0130021575344894,0.536493370514568,0,0,0,1.66610581385387,2.04239172275911e-09,2.04239225358449e-09,0.0292153969108467,0,0,0,0.00396322062797565,0.00263543657221682
14.4,-0.0139927418260915,-0.0139927418312069,0.542324290825362,0,0,0,1.67253226977353,1.99912137364977e-09,1.99895002113426e-09,0.0294972613541957,0,0,0,0.00403954281857182,0.00267902528822418
14.6,-0.0149879322713234,-0.0149879322712339,0.548121408509688,0,0,0,1.67891129384201,1.95380401267486e-09,1.95380427982228e-09,0.0297770454403021,0,0,0,0.00411606372601217,0.00272224610259511
14.8,-0.0159875618153945,-0.0159875618206155,0.553885113226438,0,0,0,1.68524337502397,1.90801771778049e-09,1.90784521514331e-09,0.0300547706126886,0,0,0,0.00419277777111361,0.00276508911910951
15,-0.0169914725180756,-0.0169914725211169,0.559615787935423,0,0,0,1.69152898183012,1.86030075545462e-09,1.86020196295267e-09,0.0303304574225663,0,0,0,0.00426967959947858,0.00280754498855909
15.2,-0.0179995146288257,-0.0179995146233957,0.565313809050061,0,0,0,1.69776856463456,1.81094098918033e-09,1.8111155752204e-09,0.0306041256228152,0,0,0,0.00434676407581097,0.00284960490078336
15.4,-0.0190115457835561,-0.0190115457853214,0.570979546585738,0,0,0,1.70396255775436,1.76158071289734e-09,1.76152331436696e-09,0.0308757942600021,0,0,0,0.00442402627815903,0.00289126057762516
15.6,-0.0200274303104525,-0.0200274303162906,0.576613364303994,0,0,0,1.71011138133546,1.7109177859187e-09,1.71073126498111e-09,0.0311454817637241,0,0,0,0.00450146149213204,0.00293250426653016
15.8,-0.0210470384625897,-0.0210470384602588,0.582215619852664,0,0,0,1.716215443362,1.65822687005213e-09,1.6582963873607e-09,0.031413206029334,0,0,0,0.00457906520538531,0.0029733287330797
16,-0.0220702457105345,-0.0220702457178158,0.587786664902119,0,0,0,1.72227514155904,1.60617803605934e-09,1.60594408084302e-09,0.0316789844966574,0,0,0,0.00465683310211839,0.0030137272536046
16.2,-0.0230969322383974,-0.0230969322438427,0.593326845277734,0,0,0,1.72829086487186,1.55248039424016e-09,1.55230465981315e-09,0.0319428342284947,0,0,0,0.00473476105729703,0.00305369360953947
16.4,-0.0241269822371284,-0.0241269822388306,0.598836501088704,0,0,0,1.73426299535533,1.49881687963593e-09,1.49875826679913e-09,0.0322047719787094,0,0,0,0.00481284513135951,0.00309322207903994
16.6,-0.0251602834443399,-0.025160283451768,0.60431596685333,0,0,0,1.74019190949391,1.44442862531902e-09,1.4441926300679e-09,0.0324648142617814,0,0,0,0.00489108156449933,0.00313230743104481
16.8,-0.0261967266245065,-0.0261967266241198,0.609765571620894,0,0,0,1.74607797976849,1.38939121319126e-09,1.38939200769461e-09,0.0327229774138629,0,0,0,0.00496946677125922,0.00317094491739472
17,-0.0272362050787971,-0.0272362050803824,0.615185639090233,0,0,0,1.75192157595761,1.33497581045194e-09,1.33491737802638e-09,0.0329792776516077,0,0,0,0.00504799733497212,0.00320913026572134
17.2,-0.0282786142956162,-0.0282786142972144,0.62057648772511,0,0,0,1.75772306626488,1.27934479503267e-09,1.27928574851499e-09,0.0332337311277471,0,0,0,0.00512667000214514,0.00324685967261788
17.4,-0.029323851486664,-0.0293238514922757,0.625938430866495,0,0,0,1.76348281864459,1.2236280044764e-09,1.22345025083126e-09,0.0334863539786733,0,0,0,0.00520548167707396,0.00328412979498353
17.6,-0.0303718152864207,-0.0303718152981014,0.631271776841858,0,0,0,1.7692012017212,1.16799342420038e-09,1.16763682923848e-09,0.0337371623718614,0,0,0,0.00528442941620593,0.00332093774291092
17.8,-0.0314224054355409,-0.0314224054457915,0.636576829071551,0,0,0,1.77487858574424,1.1118033004659e-09,1.11149143361411e-09,0.0339861725474477,0,0,0,0.00536351042261126,0.00335728107159534
18,-0.0324755224736443,-0.0324755224671944,0.641853886172395,0,0,0,1.78051534351749,1.05570599137628e-09,1.05588458115813e-09,0.0342334008550866,0,0,0,0.00544272204050208,0.00339315777269358
18.2,-0.0335310674995852,-0.0335310674890574,0.647103242058539,0,0,0,1.78611185106572,9.99260944822833e-10,9.99557821929065e-10,0.0344788637889237,0,0,0,0.00552206174963954,0.00342856626633091
18.4,-0.0345889419397933,-0.0345889419399524,0.65232518603969,0,0,0,1.79166848845993,9.4411371602543e-10,9.440957945972e-10,0.034722578015643,0,0,0,0.00560152715992185,0.00346350539149416
18.6,-0.0356490474189432,-0.0356490474205601,0.657520002916794,0,0,0,1.79718564018391,8.87468046967266e-10,8.87407678590302e-10,0.0349645604035907,0,0,0,0.00568111600575111,0.00349797439824322
18.8,-0.0367112854702719,-0.0367112854761018,0.662687973075237,0,0,0,1.80266369597596,8.32346769633063e-10,8.32164601116681e-10,0.035204828040994,0,0,0,0.00576082614077648,0.00353197293647696
19,-0.0377755575205123,-0.0377755575252725,0.667829372575656,0,0,0,1.80810305090897,7.7669732104213e-10,7.76547146030815e-10,0.0354433982596229,0,0,0,0.00584065553225489,0.00356550104829478
19.2,-0.0388417646877825,-0.0388417646831585,0.672944473242426,0,0,0,1.81350410600561,7.21129487721295e-10,7.21248670162988e-10,0.0356802886470279,0,0,0,0.00592060225582112,0.00359855915658001
19.4,-0.0399098077060947,-0.0399098077036015,0.678033542749897,0,0,0,1.81886726841878,6.66248774899847e-10,6.66308669697302e-10,0.0359155170602905,0,0,0,0.00600066449009238,0.00363114805535959
19.6,-0.0409795868765072,-0.0409795868748472,0.683096844706444,0,0,0,1.82419295165355,6.12161207141915e-10,6.12197971136541e-10,0.0361491016351654,0,0,0,0.00608084051139802,0.00366326889923181
19.8,-0.0420510020108808,-0.0420510020145771,0.688134638736401,0,0,0,1.82948157562605,5.56736271667413e-10,5.56616175026448e-10,0.0363810607936059,0,0,0,0.00616112868853235,0.00369492319309774
20,-0.04312395233778,-0.0431239523357381,0.693147180559945,0,0,0,1.83473356703136,5.03268399176804e-10,5.03308781804601e-10,0.0366114132434181,0,0,0,0.00624152747774563,0.00372611277945197
20.2,-0.0441983365658112,-0.0441983365696805,0.698134722070984,0,0,0,1.83994935895575,4.49629866325352e-10,4.4950916253117e-10,0.0368401779846603,0,0,0,0.00632203541750935,0.00375683982947405
20.4,-0.04527405283851,-0.0452740528357526,0.703097511413114,0,0,0,1.84512939115147,3.96044979797394e-10,3.961045606099e-10,0.0370673743037539,0,0,0,0.00640265112368863,0.00378710682967477
20.6,-0.0463509987347548,-0.0463509987295447,0.708035793053696,0,0,0,1.85027410982853,3.42892925858651e-10,3.43013542916659e-10,0.0372930217711727,0,0,0,0.0064833732846237,0.00381691657087416
20.8,-0.0474290713192728,-0.0474290713142187,0.712949807856125,0,0,0,1.85538396753115,2.90383073489608e-10,2.90503215233384e-10,0.0375171402350299,0,0,0,0.00656420065637541,0.00384627213616274
21,-0.0485081671658857,-0.0485081671674353,0.717839793150317,0,0,0,1.86045942296067,2.39176128555285e-10,2.39115647421295e-10,0.0377397498127631,0,0,0,0.0066451320580786,0.00387517688874256
21.2,-0.0495881824354493,-0.049588182431967,0.72270598280149,0,0,0,1.86550094068794,1.8833015355546e-10,1.88403488990407e-10,0.0379608708818392,0,0,0,0.00672616636739717,0.00390363445999825
21.4,-0.0506690128919977,-0.0506690128867417,0.727548607277278,0,0,0,1.87050899093988,1.37589816276429e-10,1.37710199146768e-10,0.0381805240673232,0,0,0,0.00680730251613838,0.00393164873682796
21.6,-0.0517505539894543,-0.0517505539955106,0.732367893713227,0,0,0,1.87548404929378,8.68847823548569e-11,8.67037899809908e-11,0.0383987302284366,0,0,0,0.00688853948597947,0.00395922384911424
21.8,-0.0528327009507146,-0.0528327009501598,0.73716406597672,0,0,0,1.8804265963927,3.72691738581565e-11,3.72699232586982e-11,0.0386155104432449,0,0,0,0.00696987630433985,0.00398636415691239
22,-0.0539153488347863,-0.0539153488342702,0.741937344729377,0,0,0,1.88533711745407,-1.13958217862198e-11,-1.13955511693575e-11,0.0388308859943267,0,0,0,0.00705131204036477,0.0040130742385447
22.2,-0.0549983926448072,-0.0549983926485609,0.746687947487975,0,0,0,1.89021610195615,-5.9381544820214e-11,-5.95014090082335e-11,0.0390448783506795,0,0,0,0.00713284580109648,0.00403935887753648
22.4,-0.0560817274153994,-0.0560817274159644,0.751416088683921,0,0,0,1.8950640432101,-1.07334597806985e-10,-1.07367030197092e-10,0.0392575091498967,0,0,0,0.00721447672777681,0.00406522305008124
22.6,-0.0571652482792903,-0.0571652482759063,0.756121979721334,0,0,0,1.89988143798746,-1.54220164416685e-10,-1.54159966042622e-10,0.0394688001785102,0,0,0,0.00729620399230892,0.00409067191210881
22.8,-0.0582488505965963,-0.0582488505950524,0.76080582903376,0,0,0,1.90466878599357,-1.99934535941027e-10,-1.99934886355169e-10,0.0396787733535474,0,0,0,0.00737802679386454,0.00411571078721397
23,-0.0593324300596771,-0.0593324300628271,0.765467842139572,0,0,0,1.90942658941124,-2.45421129599355e-10,-2.4554061214821e-10,0.0398874507025388,0,0,0,0.00745994435566198,0.00414034515424385
23.2,-0.0604158827771876,-0.0604158827780847,0.770108221696074,0,0,0,1.91415535249697,-2.90700260738297e-10,-2.90759215315628e-10,0.0400948543419768,0,0,0,0.00754195592190055,0.00416458063453082
23.4,-0.0614991053675318,-0.0614991053651916,0.774727167552368,0,0,0,1.91885558109941,-3.34875146709712e-10,-3.34839196300396e-10,0.0403010064567344,0,0,0,0.00762406075485035,0.00418842297979048
23.6,-0.0625819950864722,-0.0625819950854111,0.779324876800998,0,0,0,1.92352778211689,-3.78197284253701e-10,-3.78197207925868e-10,0.0405059292800413,0,0,0,0.00770625813211098,0.00421187806049386
23.8,-0.0636644499182598,-0.0636644499198325,0.78390154382841,0,0,0,1.92817246307529,-4.20490765470904e-10,-4.20556832414487e-10,0.0407096450715299,0,0,0,0.00778854734402504,0.00423495185365293
24,-0.064746368678921,-0.0647463686793485,0.78845736036427,0,0,0,1.93279013162704,-4.61718691058266e-10,-4.61778242380473e-10,0.0409121760966587,0,0,0,0.00787092769125519,0.00425765043137749
24.2,-0.0658276511189712,-0.0658276511180504,0.792992515529661,0,0,0,1.9373812950406,-5.02891625911439e-10,-5.02952108780153e-10,0.0411135446063243,0,0,0,0.00795339848252639,0.00427997994969108
24.4,-0.0669081980050888,-0.0669081979931103,0.797507195884188,0,0,0,1.94194645983079,-5.43413208528576e-10,-5.43195119093176e-10,0.0413137728147867,0,0,0,0.00803595903249934,0.00430194663680835
24.6,-0.0679879112087992,-0.0679879112038162,0.802001585472028,0,0,0,1.94648613121946,-5.8263637837952e-10,-5.82576981447702e-10,0.0415128828804991,0,0,0,0.00811860865982684,0.00432355678276641
24.8,-0.069066693840427,-0.0690666938419389,0.806475865866949,0,0,0,1.95100081267675,-6.21052495888841e-10,-6.21112205070884e-10,0.0417108968861669,0,0,0,0.0082013466853543,0.00434481672886809
25,-0.0701444503050862,-0.0701444503042128,0.810930216216329,0,0,0,1.95549100549037,-6.59210850836867e-10,-6.59172879474701e-10,0.0419078368191912,0,0,0,0.00828417243046365,0.00436573285740033
25.2,-0.0712210863647521,-0.0712210863636773,0.815364813284195,0,0,0,1.95995720840127,-6.95672505712785e-10,-6.95614343904083e-10,0.0421037245517668,0,0,0,0.00836708521553997,0.00438631158132145
25.4,-0.072296509272251,-0.0722965092710058,0.819779831493312,0,0,0,1.9643999170377,-7.31730025529953e-10,-7.31613552726329e-10,0.042298581824617,0,0,0,0.00845008435865003,0.00440655933554284
25.6,-0.073370627796406,-0.0733706278009386,0.824175442966349,0,0,0,1.96881962366743,-7.66562776796653e-10,-7.66503954058306e-10,0.0424924302271202,0,0,0,0.00853316917425671,0.00442648256680978
25.8,-0.0744433523396595,-0.0744433523418598,0.828551817566148,0,0,0,1.97321681668283,-8.01180219389686e-10,-8.01178673751068e-10,0.042685291182068,0,0,0,0.00861633897216407,0.00444608772556679
26,-0.0755145949480437,-0.0755145949618829,0.832909122935104,0,0,0,1.97759198034188,-8.3504442076332e-10,-8.34986111503122e-10,0.0428771859278255,0,0,0,0.00869959305649706,0.0044653812568257
26.2,-0.0765842694277395,-0.0765842694444436,0.837247524533702,0,0,0,1.98194559435861,-8.67478047728021e-10,-8.67392945663736e-10,0.0430681355034395,0,0,0,0.00878293072486834,0.00448436959230848
26.4,-0.077652291377948,-0.0776522914032861,0.841567185678219,0,0,0,1.98627813350025,-8.9986069463921e-10,-8.99919517377556e-10,0.043258160735101,0,0,0,0.00886635126767805,0.00450305914319311
26.6,-0.0787185782380219,-0.0787185782586871,0.845868267577609,0,0,0,1.99059006743057,-9.31118878180759e-10,-9.31003826115662e-10,0.0434472822196274,0,0,0,0.00894985396740584,0.00452145629170466
26.8,-0.0797830493349876,-0.0797830493525275,0.85015092936961,0,0,0,1.99488186027697,-9.60919899206658e-10,-9.60862424348452e-10,0.0436355203135301,0,0,0,0.00903343809815769,0.00453956738502413
27,-0.0808456259424204,-0.080845625963055,0.854415328156068,0,0,0,1.99915397037331,-9.89804786744042e-10,-9.89862249459184e-10,0.0438228951202402,0,0,0,0.00911710292523766,0.00455739872849303
27.2,-0.0819062313262983,-0.0819062313409521,0.858661619037519,0,0,0,2.00340684998639,-1.01928208755264e-09,-1.0192251122948e-09,0.0440094264789102,0,0,0,0.00920084770483379,0.00457495657949607
27.4,-0.0829647907224854,-0.0829647907413854,0.86288995514704,0,0,0,2.00764094518771,-1.04810543750944e-09,-1.04810601690708e-09,0.0441951339521445,0,0,0,0.00928467168370658,0.00459224714095415
27.6,-0.0840212314105371,-0.0840212314366206,0.867100487683383,0,0,0,2.01185669557231,-1.07456044409759e-09,-1.07479680711009e-09,0.0443800368171589,0,0,0,0.00936857409906572,0.00460927655623808
27.8,-0.0850754827634063,-0.0850754827883212,0.871293365943419,0,0,0,2.01605453390563,-1.10090196507595e-09,-1.101082830815e-09,0.0445641540590859,0,0,0,0.00945255417860562,0.00462605090497301
28,-0.0861274762011863,-0.0861274762217596,0.8754687373539,0,0,0,2.02023488616129,-1.12629936280251e-09,-1.12633902725479e-09,0.0447475043596727,0,0,0,0.00953661114034439,0.00464257619702757
28.2,-0.0871771452608222,-0.0871771452650621,0.879626747502564,0,0,0,2.02439817119611,-1.15199850700409e-09,-1.15166166707314e-09,0.0449301060923218,0,0,0,0.00962074419280418,0.0046588583690793
28.4,-0.0882244255379201,-0.0882244255494072,0.883767540168595,0,0,0,2.02854480076291,-1.17597762257227e-09,-1.1758111723853e-09,0.0451119773132499,0,0,0,0.00970495253500779,0.00467490327965897
28.6,-0.0892692547990412,-0.0892692548096856,0.887891257352457,0,0,0,2.03267517917901,-1.20009477008742e-09,-1.1999336732571e-09,0.0452931357588197,0,0,0,0.00978923535682485,0.00469071670668565
28.8,-0.0903115728650946,-0.0903115728890525,0.891998039305111,0,0,0,2.03678970345201,-1.221853724101e-09,-1.22196582887091e-09,0.0454735988372245,0,0,0,0.00987359183900045,0.00470630434278547
29,-0.0913513217357377,-0.0913513217504918,0.896088024556636,0,0,0,2.04088876290374,-1.24379625522641e-09,-1.24371714316229e-09,0.0456533836284714,0,0,0,0.00995802115368203,0.00472167179393351
29.2,-0.0923884454569433,-0.0923884454786116,0.900161349944271,0,0,0,2.04497273933773,-1.26485983839575e-09,-1.26496956312505e-09,0.0458325068771822,0,0,0,0.0100425224645192,0.00473682457527683
29.4,-0.0934228902145932,-0.0934228902301463,0.904218150639886,0,0,0,2.04904200685334,-1.28558606989071e-09,-1.28558645152987e-09,0.0460109849917599,0,0,0,0.0101270949271316,0.00475176810950906
29.6,-0.0944546042538484,-0.0944546042645125,0.908258560176891,0,0,0,2.05309693185365,-1.30529439340554e-09,-1.30518468949292e-09,0.0461888340415803,0,0,0,0.0102117376894439,0.00476650772449255
29.8,-0.0954835379170881,-0.095483537929218,0.912282710476616,0,0,0,2.05713787290501,-1.32572093927696e-09,-1.32566770755238e-09,0.0463660697570025,0,0,0,0.0102964498922172,0.00478104865201497
30,-0.0965096435689371,-0.0965096435808776,0.916290731874155,0,0,0,2.06116518096276,-1.34397016259002e-09,-1.34389712726224e-09,0.0465427075248939,0,0,0,0.0103812306692302,0.00479539602482031
30.2,-0.0975328756382436,-0.0975328756529092,0.920282753143693,0,0,0,2.06517919905758,-1.36122083223278e-09,-1.36122116009552e-09,0.0467187623931076,0,0,0,0.0104660791480715,0.00480955487717535
30.4,-0.0985531905720931,-0.0985531905835079,0.924258901523332,0,0,0,2.06918026245161,-1.37881229697601e-09,-1.37870376226701e-09,0.0468942490686437,0,0,0,0.0105509944504668,0.004823530142989
30.6,-0.0995705467737469,-0.0995705467882689,0.928219302739429,0,0,0,2.07316869873927,-1.39508549851231e-09,-1.39508582117087e-09,0.0470691819168759,0,0,0,0.0106359756926736,0.0048373266543816
30.8,-0.100584904640345,-0.100584904655722,0.932164081030445,0,0,0,2.07714482769665,-1.41158118527329e-09,-1.41161349276331e-09,0.0472435749659697,0,0,0,0.0107210219861988,0.00485094914230796
31,-0.101596226475583,-0.10159622648045,0.936093359170335,0,0,0,2.08110896152116,-1.42663927199527e-09,-1.42642843717344e-09,0.0474174419053857,0,0,0,0.0108061324380725,0.004864402234906
31.2,-0.102604476492809,-0.102604476502485,0.940007258491471,0,0,0,2.08506140466587,-1.44155683917679e-09,-1.44144973041049e-09,0.0475907960916517,0,0,0,0.0108913061516344,0.00487769045869715
31.4,-0.103609620773672,-0.103609620782854,0.943905898907129,0,0,0,2.08900245410887,-1.45518129490707e-09,-1.45507596596706e-09,0.0477636505474722,0,0,0,0.0109765422267916,0.00489081823723234
31.6,-0.104611627239017,-0.104611627258009,0.947789398933526,0,0,0,2.09293239922745,-1.46889537686046e-09,-1.46900058436983e-09,0.0479360179680121,0,0,0,0.0110618397607927,0.00490378989254383
31.8,-0.105610465611494,-0.105610465630758,0.951657875711446,0,0,0,2.09685152203285,-1.48258226181919e-09,-1.48268710850608e-09,0.0481079107216302,0,0,0,0.0111471978485403,0.00491660964448128
32,-0.106606107367479,-0.106606107377149,0.955511445027436,0,0,0,2.10076009718801,-1.49597358112263e-09,-1.495870156909e-09,0.0482793408545097,0,0,0,0.0112326155831927,0.00492928161157885
32.2,-0.107598525682486,-0.107598525703444,0.959350221334602,0,0,0,2.10465839214591,-1.50708367660513e-09,-1.50729230832813e-09,0.0484503200938954,0,0,0,0.0113180920566053,0.00494180981141765
32.4,-0.108587695485456,-0.10858769550195,0.963174317773006,0,0,0,2.10854666706372,-1.51887125793282e-09,-1.51897441152959e-09,0.0486208598552606,0,0,0,0.0114036263601027,0.00495419816251499
32.6,-0.109573593306686,-0.109573593319425,0.966983846189673,0,0,0,2.11242517512679,-1.53110048251026e-09,-1.53109969147636e-09,0.0487909712432612,0,0,0,0.0114892175846542,0.00496645048386974
32.8,-0.110556197274126,-0.110556197286178,0.970778917158225,0,0,0,2.11629416264665,-1.5413123242991e-09,-1.54124876750039e-09,0.0489606650562431,0,0,0,0.0115748648213612,0.00497857049589208
33,-0.111535487117475,-0.111535487136448,0.974559639998131,0,0,0,2.12015386895142,-1.55140615284988e-09,-1.55150831765427e-09,0.0491299517951236,0,0,0,0.0116605671622738,0.00499056182302918
33.2,-0.112511444083681,-0.112511444093564,0.978326122793608,0,0,0,2.12400452675151,-1.56043675897388e-09,-1.56033570439251e-09,0.0492988416640939,0,0,0,0.0117463237004683,0.00500242799329901
33.4,-0.113484050897755,-0.113484050917539,0.982078472412158,0,0,0,2.12784636206843,-1.56927573366494e-09,-1.56937445677796e-09,0.0494673445789716,0,0,0,0.0118321335307974,0.00501417244075869
33.6,-0.114453291754396,-0.114453291782788,0.985816794522765,0,0,0,2.13167959446032,-1.57870754316503e-09,-1.57900981526127e-09,0.0496354701707469,0,0,0,0.0119179957501641,0.00502579850617382
33.8,-0.115419152243475,-0.115419152248713,0.989541193613748,0,0,0,2.13550443719387,-1.58766970750901e-09,-1.58745141684569e-09,0.0498032277904441,0,0,0,0.0120039094578588,0.00503730943822235
34,-0.116381619297668,-0.116381619308416,0.993251773010283,0,0,0,2.13932109720454,-1.59692810711154e-09,-1.59682740988321e-09,0.0499706265171467,0,0,0,0.0120898737562499,0.00504870839589877
34.2,-0.117340681180034,-0.11734068119437,0.996948634891609,0,0,0,2.14312977549252,-1.60308879365578e-09,-1.60306292198986e-09,0.0501376751592536,0,0,0,0.0121758877507111,0.00505999844840967
34.4,-0.118296327479183,-0.118296327504433,1.00063188030791,0,0,0,2.14693066681967,-1.61026462650038e-09,-1.6104532707395e-09,0.0503043822674286,0,0,0,0.0122619505507633,0.00507118257947291
34.6,-0.119248549003435,-0.119248549019217,1.00430160919687,0,0,0,2.15072396028515,-1.61730992140341e-09,-1.61730976180885e-09,0.0504707561327265,0,0,0,0.0123480612696498,0.00508226368608326
34.8,-0.120197337746399,-0.12019733775861,1.00795792039998,0,0,0,2.15450983923877,-1.6236221152266e-09,-1.62352348578865e-09,0.0506368047961583,0,0,0,0.0124342190250657,0.00509324458159246
35,-0.121142686888269,-0.121142686900593,1.01160091167848,0,0,0,2.15828848141421,-1.62970041281407e-09,-1.62960281727131e-09,0.0508025360541304,0,0,0,0.0125204229394907,0.00510412799725028
35.2,-0.122084590720877,-0.122084590747058,1.01523067972906,0,0,0,2.16206005912755,-1.63492619442707e-09,-1.6351469761533e-09,0.0509679574634075,0,0,0,0.0126066721403769,0.00511491658360845
35.4,-0.123023044663602,-0.123023044683924,1.01884732019925,0,0,0,2.16582473929409,-1.64152026693731e-09,-1.64161872290292e-09,0.0511330763485779,0,0,0,0.0126929657606709,0.00512561291285639
35.6,-0.123958045115535,-0.123958045136359,1.02245092770255,0,0,0,2.16958268381179,-1.6457261248215e-09,-1.64585455680877e-09,0.051297899803566,0,0,0,0.0127793029385982,0.0051362194789831
35.8,-0.124889589560784,-0.124889589576242,1.02604159583327,0,0,0,2.17333404928551,-1.65127713933066e-09,-1.6512691318471e-09,0.0514624347042089,0,0,0,0.0128656828187371,0.0051467387020415
36,-0.125817676407722,-0.125817676419632,1.02961941718116,0,0,0,2.17707898756764,-1.65621559522489e-09,-1.65611997726689e-09,0.0516266877070523,0,0,0,0.01295210455145,0.00515717292734764
36.2,-0.126742309069367,-0.126742309071375,1.03318448334565,0,0,0,2.18081762801147,-1.6603803332238e-09,-1.66010716284859e-09,0.0517906644850704,0,0,0,0.0130385673309288,0.00516752410888621
36.4,-0.127663492173472,-0.127663492193317,1.03673688495002,0,0,0,2.18455009372369,-1.66372140369964e-09,-1.66381603980414e-09,0.0519543704382585,0,0,0,0.0131250703635726,0.0051777941013676
36.6,-0.128581222164024,-0.128581222179283,1.04027671165515,0,0,0,2.18827654293636,-1.66788441391397e-09,-1.6678834043049e-09,0.0521178125089568,0,0,0,0.0132116127785191,0.00518798541090209
36.8,-0.129495497653624,-0.129495497659891,1.04380405217311,0,0,0,2.19199712360212,-1.67068154449668e-09,-1.67049405905284e-09,0.0522809971823647,0,0,0,0.013298193722259,0.00519810036919644
37,-0.130406321444199,-0.130406321456499,1.04731899428056,0,0,0,2.19571196459228,-1.67455227462199e-09,-1.67448992172137e-09,0.0524439301160597,0,0,0,0.0133848123797635,0.005208140978794
37.2,-0.131313697082159,-0.131313697106514,1.05082162483176,0,0,0,2.1994211907677,-1.6769436776698e-09,-1.67712996962388e-09,0.0526066167811448,0,0,0,0.0134714679429775,0.00521810917779383
37.4,-0.132217628881609,-0.132217628906249,1.05431202977153,0,0,0,2.2031249228139,-1.67875844128695e-09,-1.67895002414764e-09,0.0527690624723262,0,0,0,0.0135581596115989,0.00522800684328909
37.6,-0.133118121865458,-0.133118121885246,1.05779029414785,0,0,0,2.20682327740726,-1.68252079976727e-09,-1.68261227520561e-09,0.0529312723122156,0,0,0,0.0136448865931205,0.00523783579271303
37.8,-0.134015181691703,-0.134015181707699,1.06125650212434,0,0,0,2.21051636757694,-1.68508992523519e-09,-1.6851034699561e-09,0.0530932512521178,0,0,0,0.0137316481023815,0.00524759778393463
38,-0.134908814695597,-0.134908814710931,1.06471073699243,0,0,0,2.21420430251068,-1.68707555911474e-09,-1.68707547931746e-09,0.0532550040822696,0,0,0,0.0138184433623904,0.00525729451877895
38.2,-0.135799027828551,-0.135799027841915,1.0681530811834,0,0,0,2.21788718781403,-1.68833020133818e-09,-1.68828992799797e-09,0.0534165354341435,0,0,0,0.0139052716040864,0.00526692764368985
38.4,-0.136685828640838,-0.136685828660602,1.07158361628019,0,0,0,2.2215651255265,-1.69056343923835e-09,-1.69065313831984e-09,0.0535778497868088,0,0,0,0.0139921320666548,0.00527649875186496
38.6,-0.137569225226931,-0.137569225247301,1.07500242302898,0,0,0,2.22523821443483,-1.69139730346601e-09,-1.69149897213949e-09,0.0537389514680079,0,0,0,0.0140790239971026,0.00528600938350552
38.8,-0.138449226249119,-0.138449226255633,1.07840958135059,0,0,0,2.22890654989044,-1.69283757844862e-09,-1.69265895050286e-09,0.0538998446636913,0,0,0,0.0141659466510306,0.00529546102910502
39,-0.139325840836913,-0.139325840856628,1.08180517035173,0,0,0,2.23257022414563,-1.6936494671993e-09,-1.69373724767663e-09,0.054060533418414,0,0,0,0.0142528992921184,0.00530485512947366
39.2,-0.140199078654613,-0.140199078674158,1.08518926833597,0,0,0,2.23622932633644,-1.69426075252721e-09,-1.69434481028796e-09,0.0542210216417218,0,0,0,0.0143398811924634,0.00531419307791426
39.4,-0.14106894980779,-0.141068949831937,1.08856195281461,0,0,0,2.23988394257642,-1.69544931219456e-09,-1.69562535193291e-09,0.0543813131124764,0,0,0,0.0144268916326362,0.00532347622166618
39.6,-0.141935464837159,-0.141935464856893,1.09192330051731,0,0,0,2.24353415617753,-1.69538750052767e-09,-1.69547474324072e-09,0.0545414114808088,0,0,0,0.0145139299013856,0.00533270586251675
39.8,-0.14279863472081,-0.142798634730624,1.0952733874026,0,0,0,2.24718004752172,-1.69592555276932e-09,-1.69581455475298e-09,0.0547013202760429,0,0,0,0.0146009952962406,0.00534188325953492
40,-0.143658470805632,-0.143658470820417,1.09861228866811,0,0,0,2.25082169436174,-1.69613531900148e-09,-1.69612347777903e-09,0.0548610429069647,0,0,0,0.0146880871229775,0.00535100962909882
40.2,-0.143766652783348,-0.143766652797676,1.0952733874026,0,0,0,2.24283363452394,-2.34383172592612e-11,-2.34175734359354e-11,0.0545106832570759,0,0,0,0.0146127522986239,0.00526192376600603
40.4,-0.14385380397357,-0.143853803988355,1.09192330051731,0,0,0,2.2349429288635,-1.40824400751693e-11,-1.40710464113791e-11,0.0541645968881066,0,0,0,0.0145371290761993,0.00517464044865058
40.6,-0.143920735900686,-0.143920735916691,1.08856195281461,0,0,0,2.22714496620997,-7.54990514550968e-12,-7.56335619134241e-12,0.0538225782330824,0,0,0,0.014461224067923,0.00508907961019194
40.8,-0.14396821982029,-0.143968219835614,1.08518926833597,0,0,0,2.21943537662072,-3.35379987670414e-12,-3.35380681559805e-12,0.0534844356252926,0,0,0,0.0143850438629934,0.00500516657198757
41,-0.143996978975744,-0.143996978991174,1.08180517035173,0,0,0,2.21181006089436,-1.02338276741776e-12,-1.02582178862498e-12,0.0531499892728758,0,0,0,0.0143085948832051,0.00492283130759764
41.2,-0.144004550609593,-0.144004550624896,1.07840958135059,0,0,0,2.20427901943125,4.21168583744636e-07,4.21168583612797e-07,0.0528188354550874,0,0,0,0.014231844193245,0.00484192742002075
41.4,-0.144004550609593,-0.144004550624896,1.07500242302898,0,0,0,2.19678147174611,-4.73727764446763e-07,-4.73727764852688e-07,0.0524917828063138,0,0,0,0.0141549598897618,0.00476272508159365
41.6,-0.143977498647875,-0.143977498663404,1.07158361628019,0,0,0,2.18940237611462,-1.04279432311394e-12,-1.04813033252604e-12,0.052167188218478,0,0,0,0.0140776970688342,0.00468465429964234
41.8,-0.143937758661115,-0.14393775867616,1.0681530811834,0,0,0,2.18207784737036,-2.39913991451068e-12,-2.3947267779878e-12,0.0518459343904578,0,0,0,0.0140002339778568,0.00460801091839086
42,-0.143882313133866,-0.143882313148537,1.06471073699243,0,0,0,2.17482045282965,-4.08500663851008e-12,-4.0730474548667e-12,0.0515276250692666,0,0,0,0.0139225318367357,0.00453265340235132
42.2,-0.143811666906505,-0.143811666921022,1.06125650212434,0,0,0,2.16762731970733,-5.78863693090348e-12,-5.77364198117714e-12,0.0512121342539255,0,0,0,0.0138445961461067,0.00445853310779274
42.4,-0.143726297467595,-0.143726297481964,1.05779029414785,0,0,0,2.16049572828187,-7.35443303478966e-12,-7.33648905515416e-12,0.0508993426571337,0,0,0,0.0137664322707263,0.00438560411170888
42.6,-0.143626656971165,-0.143626656986375,1.05431202977153,0,0,0,2.15342310053831,-8.8372989481833e-12,-8.8372850703955e-12,0.0505891372072848,0,0,0,0.0136880454449772,0.00431382302539151
42.8,-0.143513174084952,-0.143513174099595,1.05082162483176,0,0,0,2.14640698980148,-9.73401567683219e-12,-9.72221261830164e-12,0.0502814105921491,0,0,0,0.0136094407783117,0.00424314882372426
43,-0.143386255701347,-0.14338625571612,1.04731899428056,0,0,0,2.13944507115721,-1.03846341248381e-11,-1.03757870351107e-11,0.0499760608417158,0,0,0,0.0135306232609014,0.00417354268921179
43.2,-0.143246288498018,-0.143246288514539,1.04380405217311,0,0,0,2.13253513275106,-1.05591160814988e-11,-1.05879610634574e-11,0.0496729909436084,0,0,0,0.0134515977689481,0.00410496786840659
43.4,-0.14309364039045,-0.143093640406339,1.04027671165515,0,0,0,2.1256750677289,-9.8703406559153e-12,-9.88602255613813e-12,0.0493721084903458,0,0,0,0.0133723690700977,0.00403738954036925
43.6,-0.142928661870643,-0.142928661886486,1.03673688495002,0,0,0,2.11886286679791,-8.48040387912974e-12,-8.49538495106827e-12,0.0490733253547322,0,0,0,0.0132929418288034,0.00397077469580403
43.8,-0.142751687246012,-0.142751687261987,1.03318448334565,0,0,0,2.1120966114122,-6.58154086785601e-12,-6.59968607541472e-12,0.0487765573897203,0,0,0,0.0132133206114323,0.00390509202555186
44,-0.14256303578186,-0.142563035797873,1.02961941718116,0,0,0,2.10537446747707,-3.84164575151225e-12,-3.86093934601206e-12,0.0484817241512468,0,0,0,0.0131335098912559,0.00384031181784611
44.2,-0.142363012775375,-0.142363012791503,1.02604159583327,0,0,0,2.09869467947728,-3.850184060461e-13,-4.07170824834324e-13,0.0481887486426655,0,0,0,0.0130535140534574,0.00377640586377755
44.4,-0.142151910541195,-0.142151910555035,1.02245092770255,0,0,0,2.09205556510233,4.14047615637791e-12,4.16855439056008e-12,0.047897557077079,0,0,0,0.012973337399803,0.00371334736966895
44.6,-0.141930009340347,-0.141930009351364,1.01884732019925,0,0,0,2.0854555101958,9.55447873596249e-12,9.64512844592313e-12,0.0476080786579883,0,0,0,0.0128929841533745,0.00365111087640936
44.8,-0.141697578238053,-0.141697578252078,1.01523067972906,0,0,0,2.07889296411622,1.5630729349736e-11,1.56545262863794e-11,0.0473202453748519,0,0,0,0.0128124584629969,0.00358967218455981
45,-0.141454875906084,-0.141454875921162,1.01160091167848,0,0,0,2.07236643545912,2.33598661247836e-11,2.33599285748287e-11,0.0470339918125171,0,0,0,0.0127317644074139,0.00352900828482572
45.2,-0.141202151396683,-0.141202151411755,1.00795792039998,0,0,0,2.06587448789586,3.12607578711876e-11,3.12607561364642e-11,0.046749254976591,0,0,0,0.012650905999868,0.00346909729447825
45.4,-0.140939644812293,-0.140939644826463,1.00430160919687,0,0,0,2.05941573658959,4.02668523524774e-11,4.02870480031847e-11,0.0464659741262654,0,0,0,0.0125698871916174,0.00340991839694583
45.6,-0.140667587993341,-0.140667588009606,1.00063188030791,0,0,0,2.05298884457884,5.03640826959861e-11,5.03364450815669e-11,0.0461840906225276,0,0,0,0.0124887118761647,0.00335145178704483
45.8,-0.140386205139988,-0.140386205155031,0.996948634891609,0,0,0,2.04659251953937,6.13441866748055e-11,6.13441988178698e-11,0.0459035477843085,0,0,0,0.0124073838928972,0.00329367861941163
46,-0.140095713383208,-0.140095713398003,0.993251773010283,0,0,0,2.04022551074438,7.35090616849066e-11,7.35146110653062e-11,0.0456242907542247,0,0,0,0.0123259070306263,0.00323658096061182
46.2,-0.139796323355299,-0.139796323369202,0.989541193613748,0,0,0,2.03388660616162,8.61964024462258e-11,8.62224094205777e-11,0.0453462663738299,0,0,0,0.0122442850311679,0.00318014174484104
46.4,-0.139488239684515,-0.139488239700812,0.985816794522765,0,0,0,2.02757462985707,1.00285408449752e-10,1.00255637125457e-10,0.0450694230649902,0,0,0,0.0121625215924025,0.00312434473210712
46.6,-0.139171661517681,-0.139171661534065,0.982078472412158,0,0,0,2.02128843938881,1.1519358904255e-10,1.1516147410684e-10,0.0447937107212383,0,0,0,0.0120806203717388,0.00306917447004605
46.8,-0.138846782962411,-0.138846782975657,0.978326122793608,0,0,0,2.01502692351551,1.30867955361325e-10,1.30909321577333e-10,0.0445190806036129,0,0,0,0.0119985849889599,0.00301461625761405
47,-0.138513793529456,-0.13851379354253,0.974559639998131,0,0,0,2.0087889999717,1.47370565403704e-10,1.4741604811852e-10,0.0442454852439722,0,0,0,0.0119164190291735,0.00296065611154259
47.2,-0.138172878552942,-0.138172878569013,0.970778917158225,0,0,0,2.00257361340498,1.65090548870372e-10,1.65064783022584e-10,0.0439728783537872,0,0,0,0.01183412604555,0.00290728073489577
47.4,-0.137824219595266,-0.137824219613212,0.966983846189673,0,0,0,1.9963797333845,1.83566915140654e-10,1.83495869540695e-10,0.0437012147391815,0,0,0,0.0117517095620981,0.00285447748792272
47.6,-0.137467994807981,-0.13746799482521,0.963174317773006,0,0,0,1.9902063526109,2.02850175892721e-10,2.0279579231175e-10,0.0434304502198679,0,0,0,0.0116691730760599,0.00280223436044987
47.8,-0.137104379294739,-0.137104379310468,0.959350221334602,0,0,0,1.98405248516578,2.22766935106811e-10,2.22748390912852e-10,0.0431605415538556,0,0,0,0.0115865200603975,0.00275053994634697
48,-0.136733545444592,-0.136733545459554,0.955511445027436,0,0,0,1.97791716491978,2.43774996716573e-10,2.43774923858187e-10,0.0428914463658316,0,0,0,0.0115037539659915,0.00269938341939566
48.2,-0.136355663268598,-0.136355663281974,0.951657875711446,0,0,0,1.97179944395656,2.6551827750354e-10,2.65556873366157e-10,0.0426231230808596,0,0,0,0.0114208782239686,0.00264875451101988
48.4,-0.135970900693311,-0.135970900709046,0.947789398933526,0,0,0,1.96569839117262,2.88013099480899e-10,2.87993698333544e-10,0.0423555308608242,0,0,0,0.0113378962476576,0.00259864348907304
48.6,-0.135579423864596,-0.13557942388065,0.943905898907129,0,0,0,1.95961309091559,3.11170323882837e-10,3.11142729636504e-10,0.0420886295452447,0,0,0,0.0112548114345799,0.00254904113813914
48.8,-0.135181397417798,-0.135181397431194,0.940007258491471,0,0,0,1.95354264171635,3.35114132624104e-10,3.35152471747646e-10,0.0418223795954126,0,0,0,0.0111716271682935,0.00249993874100335
49,-0.134776984747826,-0.134776984762751,0.936093359170335,0,0,0,1.9474861550711,3.59608127997735e-10,3.59608249428378e-10,0.0415567420422022,0,0,0,0.011088346820214,0.00245132806136597
49.2,-0.134366348262088,-0.134366348281986,0.932164081030445,0,0,0,1.94144275435118,3.84847360576646e-10,3.8472186894567e-10,0.0412916784362734,0,0,0,0.011004973751169,0.00240320132739614
49.4,-0.133949649634233,-0.133949649649152,0.928219302739429,0,0,0,1.93541157370984,4.10336778444709e-10,4.10336787118326e-10,0.0410271508022402,0,0,0,0.0109215113130736,0.00235555121655851
49.6,-0.13352705000367,-0.133527050018581,0.924258901523332,0,0,0,1.92939175713222,4.36591107016993e-10,4.36591186814272e-10,0.0407631215946367,0,0,0,0.010837962850279,0.0023083708410553
49.8,-0.133098710228701,-0.133098710245801,0.920282753143693,0,0,0,1.92338245746592,4.63404800643552e-10,4.63348460294499e-10,0.0404995536577022,0,0,0,0.0107543317010777,0.00226165373444512
50,-0.132664791089145,-0.132664791099767,0.916290731874155,0,0,0,1.91738283555897,4.90191701466025e-10,4.90302558969757e-10,0.0402364101871223,0,0,0,0.0106706211989818,0.00221539383887516
50.2,-0.132225453453661,-0.132225453466837,0.912282710476616,0,0,0,1.91139205949928,5.1795423679224e-10,5.1799920255946e-10,0.0399736546936849,0,0,0,0.0105868346737853,0.00216958549289808
50.4,-0.131780858523822,-0.131780858536987,0.908258560176891,0,0,0,1.9054093037585,5.45745330871039e-10,5.45790844810878e-10,0.0397112509713116,0,0,0,0.0105029754530011,0.00212422342054858
50.6,-0.13133116796979,-0.131331167988768,0.904218150639886,0,0,0,1.89943374856287,5.73491339486698e-10,5.73383819590934e-10,0.0394491630650923,0,0,0,0.0104190468627023,0.00207930272041775
50.8,-0.130876544118504,-0.130876544133394,0.900161349944271,0,0,0,1.8934645792567,6.01939583247391e-10,6.01939701208587e-10,0.0391873552423194,0,0,0,0.0103350522284698,0.00203481885556205
51,-0.130417150120565,-0.130417150134579,0.896088024556636,0,0,0,1.88750098557811,6.30004406282358e-10,6.30027785150644e-10,0.0389257919674235,0,0,0,0.0102509948766807,0.00199076764446668
51.2,-0.129953150082824,-0.129953150096829,0.89199803930511,0,0,0,1.8815421612638,6.58836703942844e-10,6.58860365571057e-10,0.0386644378753331,0,0,0,0.0101668781349006,0.00194714525152932
51.4,-0.129484709247326,-0.129484709262094,0.887891257352457,0,0,0,1.87558730337461,6.87489280781772e-10,6.87492314813132e-10,0.0384032577510288,0,0,0,0.0100827053331836,0.00190394817919996
51.6,-0.129011994104908,-0.129011994120349,0.883767540168595,0,0,0,1.86963561192063,7.15556166402953e-10,7.15540741241805e-10,0.0381422165077418,0,0,0,0.00999847980456682,0.00186117325967652
51.8,-0.128535172518771,-0.128535172536123,0.879626747502564,0,0,0,1.86368628944913,7.43616715079276e-10,7.43548719123188e-10,0.0378812791680734,0,0,0,0.00991420488575691,0.00181881764732766
52,-0.128054413858601,-0.128054413872579,0.8754687373539,0,0,0,1.85773854062946,7.7224342372173e-10,7.72268141796539e-10,0.0376204108474964,0,0,0,0.00982988391790941,0.00177687881167483
52.2,-0.127569889127236,-0.127569889140319,0.871293365943419,0,0,0,1.85179157181824,7.99770416559653e-10,7.99820197919243e-10,0.0373595767403574,0,0,0,0.00974552024754703,0.00173535453094554
52.4,-0.12708177103078,-0.12708177104362,0.867100487683383,0,0,0,1.84584459093136,8.26980428580981e-10,8.27037282408183e-10,0.0370987421042316,0,0,0,0.00966111722666811,0.00169424288509423
52.6,-0.126590234098302,-0.126590234117044,0.86288995514704,0,0,0,1.83989680706567,8.54225620794402e-10,8.54116085149959e-10,0.0368378722495586,0,0,0,0.00957667821367655,0.0016535422501259
52.8,-0.126095454788829,-0.12609545480458,0.858661619037519,0,0,0,1.83394743026188,8.8087621571975e-10,8.80850854062531e-10,0.0365769325295591,0,0,0,0.0094922065739893,0.00161325129237859
53,-0.125597611544357,-0.125597611561897,0.854415328156068,0,0,0,1.82799567133376,9.06725392685326e-10,9.06648941687016e-10,0.0363158883313246,0,0,0,0.00940770568054594,0.00157336896300584
53.2,-0.125096884886538,-0.125096884903885,0.85015092936961,0,0,0,1.82204074172637,9.31854565733303e-10,9.3178277940642e-10,0.0360547050684814,0,0,0,0.00932317891433288,0.00153389449276237
53.4,-0.124593457476812,-0.124593457494336,0.845868267577609,0,0,0,1.81608185337274,9.56636977966774e-10,9.5655950695106e-10,0.0357933481757318,0,0,0,0.00923862966501319,0.00149482738716558
53.6,-0.124087514198868,-0.124087514216411,0.841567185678219,0,0,0,1.81011821855372,9.80355782664866e-10,9.80277015810715e-10,0.0355317831051335,0,0,0,0.00915406133165018,0.00145616742199118
53.8,-0.123579242195415,-0.12357924221055,0.837247524533702,0,0,0,1.80414904990815,1.00335676919694e-09,1.003348393952e-09,0.0352699753222664,0,0,0,0.00906947732310866,0.00141791463864253
54,-0.123068830937186,-0.123068830952033,0.832909122935104,0,0,0,1.79817356031995,1.02504745143339e-09,1.02504744275977e-09,0.035007890305538,0,0,0,0.0089848810589203,0.00138006934021136
54.2,-0.122556472254356,-0.122556472266548,0.828551817566148,0,0,0,1.79219096299275,1.04599721245657e-09,1.04607662983203e-09,0.0347454935447883,0,0,0,0.00890027596973013,0.00134263208727745
54.4,-0.122042360390881,-0.122042360407476,0.824175442966349,0,0,0,1.78620047137886,1.06579269194829e-09,1.06574000145743e-09,0.0344827505431439,0,0,0,0.00881566549827751,0.00130560369442714
54.6,-0.121526692038859,-0.12152669205184,0.819779831493312,0,0,0,1.7802012992971,1.08455115027661e-09,1.08460773001751e-09,0.034219626818012,0,0,0,0.00873105309996488,0.00126898522649179
54.8,-0.12100966636205,-0.12100966637644,0.815364813284195,0,0,0,1.77419266093283,1.10184027353466e-09,1.10185421377251e-09,0.0339560879048195,0,0,0,0.00864644224388856,0.00123277799538995
55,-0.120491485028724,-0.120491485041827,0.810930216216329,0,0,0,1.76817377099195,1.11774672677256e-09,1.11780044075027e-09,0.0336920993601597,0,0,0,0.00856183641356748,0.00119698355678224
55.2,-0.11997235222637,-0.119972352241214,0.806475865866948,0,0,0,1.76214384477726,1.13245153705865e-09,1.13245161512121e-09,0.0334276267670274,0,0,0,0.0084772391080278,0.00116160370718962
55.4,-0.119452474692136,-0.119452474709547,0.802001585472027,0,0,0,1.75610209831364,1.14578911636354e-09,1.14570880387077e-09,0.0331626357405385,0,0,0,0.00839265384289052,0.0011266404812046
55.6,-0.118932061720733,-0.118932061738122,0.797507195884188,0,0,0,1.75004774850874,1.15773209248549e-09,1.15765181989136e-09,0.0328970919342093,0,0,0,0.00830808415150493,0.00109209614883113
55.8,-0.118411325178407,-0.118411325195759,0.792992515529661,0,0,0,1.74398001329675,1.16798108164284e-09,1.16790134854772e-09,0.0326309610473132,0,0,0,0.0082235335862779,0.00105797321308636
56,-0.117890479512315,-0.117890479528883,0.78845736036427,0,0,0,1.73789811183267,1.17630391885393e-09,1.1762486592376e-09,0.0323642088324283,0,0,0,0.0081390057200162,0.00102427440767966
56.2,-0.117369741749626,-0.117369741766127,0.783901543828409,0,0,0,1.73180126470126,1.18317812665414e-09,1.18312458267933e-09,0.0320968011034944,0,0,0,0.00805450414738552,0.000991002694862447
56.4,-0.116849331516592,-0.116849331532263,0.779324876800998,0,0,0,1.72568869408026,1.18870433982177e-09,1.1886774082398e-09,0.0318287037449784,0,0,0,0.00797003248665629,0.000958161263594006
56.6,-0.116329471047132,-0.116329471063852,0.774727167552368,0,0,0,1.7195596239245,1.19206629289881e-09,1.19200467725566e-09,0.0315598827212576,0,0,0,0.00788559438155464,0.000925753527843157
56.8,-0.115810385165853,-0.115810385182317,0.770108221696074,0,0,0,1.71341328027235,1.19392296743515e-09,1.19386934886723e-09,0.0312903040849531,0,0,0,0.00780119350294818,0.000893783124787128
57,-0.115292301317898,-0.115292301328724,0.765467842139571,0,0,0,1.70724889137006,1.19387217993594e-09,1.19400624630506e-09,0.0310199339876126,0,0,0,0.00771683355120085,0.000862253913645252
57.2,-0.114775449551595,-0.11477544956564,0.76080582903376,0,0,0,1.70106568793957,1.19206587309573e-09,1.19209273702348e-09,0.0307487386888711,0,0,0,0.00763251825831113,0.000831169974350133
57.4,-0.114260062547548,-0.114260062561596,0.756121979721334,0,0,0,1.69486290340141,1.18850435049112e-09,1.18853136707453e-09,0.03047668456615,0,0,0,0.00754825139035222,0.000800535606517616
57.6,-0.113746375617136,-0.113746375631197,0.751416088683921,0,0,0,1.6886397740607,1.1827983627255e-09,1.18282518848933e-09,0.0302037381246786,0,0,0,0.00746403675019339,0.000770355328684522
57.8,-0.113234626704144,-0.113234626717357,0.746687947487975,0,0,0,1.6823955393917,1.17574366041706e-09,1.17579993484662e-09,0.0299298660061764,0,0,0,0.00737987818014216,0.000740633877512248
58,-0.112725056425372,-0.112725056441807,0.741937344729377,0,0,0,1.676129442147,1.16671275765534e-09,1.16665748416123e-09,0.0296550349991971,0,0,0,0.00729577956524631,0.000711376207565467
58.2,-0.112217908077306,-0.112217908091402,0.73716406597672,0,0,0,1.66984072863901,1.15551229869226e-09,1.15553859710016e-09,0.0293792120470562,0,0,0,0.00721174483632591,0.000682587490897575
58.4,-0.11171342764157,-0.111713427656104,0.732367893713227,0,0,0,1.66352864894248,1.14325931013792e-09,1.14327035685702e-09,0.0291023642560877,0,0,0,0.00712777797341498,0.000654273117007451
58.6,-0.111211863868746,-0.111211863883586,0.727548607277278,0,0,0,1.65719245694628,1.12838055219e-09,1.12838080892907e-09,0.0288244589049027,0,0,0,0.0070438830098016,0.000626438693291779
58.8,-0.110713468249767,-0.110713468264641,0.72270598280149,0,0,0,1.65083141071555,1.11232722685428e-09,1.11232627622582e-09,0.0285454634493305,0,0,0,0.00696006403544862,0.000599090045058457
59,-0.110218495117411,-0.110218495132254,0.717839793150317,0,0,0,1.64444477245655,1.09451965546459e-09,1.09451985322306e-09,0.0282653455309048,0,0,0,0.00687632520167482,0.000572233216545823
59.2,-0.109727201671513,-0.109727201687752,0.712949807856125,0,0,0,1.63803180873893,1.07497500657916e-09,1.07492410285348e-09,0.0279840729813902,0,0,0,0.00679267072536565,0.000545874471621265
59.4,-0.109239848048614,-0.109239848063458,0.708035793053696,0,0,0,1.6315917905932,1.05393917898544e-09,1.05393937153975e-09,0.0277016138275394,0,0,0,0.00670910489373058,0.00052002029493913
59.6,-0.108756697399975,-0.108756697412122,0.703097511413114,0,0,0,1.62512399356173,1.03122055859772e-09,1.03132118990656e-09,0.0274179362950758,0,0,0,0.00662563206940305,0.000494677393392607
59.8,-0.108278015968218,-0.10827801598472,0.698134722070984,0,0,0,1.61862769778263,1.00695770645365e-09,1.00689558427125e-09,0.0271330088108929,0,0,0,0.00654225669567979,0.000469852697719448
60,-0.107804073193113,-0.107804073207653,0.693147180559945,0,0,0,1.6121021880393,9.81641091329921e-10,9.81652800713384e-10,0.02684680000411,0,0,0,0.00645898330208296,0.000445553364397807
60.2,-0.107335141828153,-0.107335141841358,0.688134638736401,0,0,0,1.60554675367473,9.54561475002835e-10,9.54624320564923e-10,0.0265592787069879,0,0,0,0.00637581651051227,0.000421786778000413
60.4,-0.106871498042422,-0.106871498057261,0.683096844706444,0,0,0,1.5989606886764,9.26582669966147e-10,9.26583056809482e-10,0.026270413952181,0,0,0,0.00629276104119815,0.000398560553492431
60.6,-0.106413421594766,-0.10641342160716,0.678033542749897,0,0,0,1.59234329151182,8.97362763957466e-10,8.97458340282098e-10,0.0259801749708872,0,0,0,0.00620982171955627,0.00037588253919248
60.8,-0.105961195963992,-0.105961195979435,0.672944473242426,0,0,0,1.58569386507433,8.67202330778749e-10,8.6717899007438e-10,0.0256885311877787,0,0,0,0.00612700348301641,0.000353760819794825
61,-0.105515108548781,-0.105515108563042,0.667829372575655,0,0,0,1.579011716524,8.35865409873349e-10,8.35888719352695e-10,0.0253954522149883,0,0,0,0.00604431138839393,0.00033220371981892
61.2,-0.105075450839586,-0.105075450856151,0.662687973075237,0,0,0,1.57229615712332,8.03782191846625e-10,8.03713569655362e-10,0.025100907843933,0,0,0,0.00596175061955576,0.000311219807331422
61.4,-0.104642518654746,-0.104642518671831,0.657520002916794,0,0,0,1.56554650199877,7.71069236238375e-10,7.70978988984261e-10,0.0248048680356177,0,0,0,0.00587932649557045,0.00029081789805337
61.6,-0.104216612372886,-0.104216612388274,0.65232518603969,0,0,0,1.55876206986326,7.376549475413e-10,7.37632918287878e-10,0.0245073029089149,0,0,0,0.00579704447926421,0.000271007059803788
61.8,-0.103798037192444,-0.103798037205886,0.647103242058539,0,0,0,1.5519421827125,7.03577496610763e-10,7.03635188309404e-10,0.0242081827265576,0,0,0,0.0057149101861643,0.000251796617273245
62,-0.103387103415128,-0.103387103429283,0.641853886172395,0,0,0,1.54508616547409,6.69356200674875e-10,6.69384835755293e-10,0.0239074778789527,0,0,0,0.00563292939389952,0.000233196157168681
62.2,-0.102984126778029,-0.102984126794384,0.636576829071551,0,0,0,1.53819334554326,6.34586586403807e-10,6.3452347195958e-10,0.0236051588664175,0,0,0,0.00555110805224565,0.000215215533817836
62.4,-0.102589428772421,-0.102589428789458,0.631271776841858,0,0,0,1.53126305238328,5.99942016205057e-10,5.99849444421485e-10,0.0233011962777392,0,0,0,0.00546945229337737,0.000197864875021315
62.6,-0.102203337040982,-0.102203337056058,0.625938430866495,0,0,0,1.52429461691936,5.65095521591619e-10,5.65085624994188e-10,0.0229955607679018,0,0,0,0.00538796844304515,0.000181154588496936
62.8,-0.10182618576695,-0.101826185782477,0.62057648772511,0,0,0,1.51728737099814,5.30090953770879e-10,5.30061541534343e-10,0.0226882230318257,0,0,0,0.00530666303200217,0.000165095368596619
63,-0.101458316114807,-0.101458316129424,0.615185639090233,0,0,0,1.51024064676269,4.9569900354568e-10,4.95708752691615e-10,0.0223791537756039,0,0,0,0.005225542808093,0.000149698203499547
63.2,-0.101100076730202,-0.101100076745893,0.609765571620894,0,0,0,1.50315377584913,4.61355919613438e-10,4.61318644742748e-10,0.0220683236860684,0,0,0,0.00514461474927488,0.000134974382977834
63.4,-0.100751824233719,-0.100751824247734,0.60431596685333,0,0,0,1.49602608870159,4.27603020700107e-10,4.27639465505614e-10,0.0217557033952091,0,0,0,0.00506388607684146,0.000120935506449521
63.6,-0.100413923802564,-0.100413923815819,0.598836501088704,0,0,0,1.48885691363065,3.94232493004798e-10,3.94303149159336e-10,0.0214412634433046,0,0,0,0.00498336426984871,0.000107593491718531
63.8,-0.100086749765131,-0.10008674977826,0.593326845277734,0,0,0,1.48164557593865,3.61842659134248e-10,3.61919557691215e-10,0.0211249742369069,0,0,0,0.0049030570799511,9.49605841064206e-05
64,-0.0997706862837984,-0.0997706862983509,0.587786664902119,0,0,0,1.47439139682221,3.30062664699593e-10,3.300754339991e-10,0.020806806004484,0,0,0,0.00482297254743804,8.30493662689178e-05
64.2,-0.0994661280541102,-0.0994661280685921,0.582215619852664,0,0,0,1.46709369231467,2.99268047843082e-10,2.99284090565788e-10,0.0204867287463694,0,0,0,0.00474311901784261,7.18727685014422e-05
64.4,-0.0991734810995655,-0.099173481114455,0.576613364303994,0,0,0,1.45975177200395,2.69390405815972e-10,2.69387597298665e-10,0.0201647121813154,0,0,0,0.00466350515985957,6.14440797906202e-05
64.6,-0.0988931636154595,-0.0988931636305436,0.570979546585738,0,0,0,1.45236493771775,2.40780807618524e-10,2.40768739147301e-10,0.0198407256867511,0,0,0,0.00458413998413832,5.17769595074505e-05
64.8,-0.0986256069132256,-0.0986256069277529,0.56531380905006,0,0,0,1.44493248199402,2.13296862811019e-10,2.1331088197879e-10,0.0195147382336499,0,0,0,0.0045050328634902,4.28854499348078e-05
65,-0.0983712564346772,-0.0983712564508826,0.559615787935423,0,0,0,1.43745368645179,1.87310551617859e-10,1.87244468194403e-10,0.0191867183132207,0,0,0,0.00442619355428931,3.47839896302103e-05
65.2,-0.0981305729085766,-0.0981305729228742,0.553885113226438,0,0,0,1.42992781988786,1.62585334952114e-10,1.62610423390386e-10,0.0188566338550859,0,0,0,0.0043476322196087,2.74874278356807e-05
65.4,-0.0979040336115409,-0.0979040336259919,0.548121408509687,0,0,0,1.42235413615502,1.39416527801528e-10,1.39434251471282e-10,0.0185244521329086,0,0,0,0.00426935945404878,2.10110400439914e-05
65.6,-0.0976921338413197,-0.0976921338565779,0.542324290825362,0,0,0,1.41473187163269,1.17916816935737e-10,1.1789490477615e-10,0.0181901396539979,0,0,0,0.00419138631087305,1.53705450251859e-05
65.8,-0.0974953886274436,-0.0974953886421482,0.536493370514568,0,0,0,1.40706024215323,9.79946766094253e-11,9.79998564937246e-11,0.0178536620248462,0,0,0,0.00411372433195739,1.0582123674348e-05
66,-0.0973143348147676,-0.0973143348295721,0.53062825106217,0,0,0,1.39933843907269,7.98012203193088e-11,7.98012775651835e-11,0.0175149837781256,0,0,0,0.00403638558156202,6.66244029358235e-06
66.2,-0.0971495303272915,-0.0971495303415852,0.524728528934982,0,0,0,1.39156563342965,6.34741139857176e-11,6.34996404416666e-11,0.0171740685552505,0,0,0,0.00395938266008546,3.62867480819319e-06
66.4,-0.0970015657743833,-0.0970015657893856,0.518793793415167,0,0,0,1.38374094589141,4.89165418240955e-11,4.89052184166061e-11,0.0168308777889756,0,0,0,0.00388272881161233,1.49852942991545e-06
66.6,-0.0968710694194339,-0.0968710694338756,0.512823626428664,0,0,0,1.37586343611357,1.54944231056664e-10,1.54962400550351e-10,0.0164853699980345,0,0,0,0.00380643798312291,2.90286057828825e-07
66.8,-0.0967587287430647,-0.0967587287577601,0.506817602368452,0,0,0,1.36793204720059,1.1036648418089e-10,1.1037241780254e-10,0.0161374993694791,0,0,0,0.00373052501003824,2.28896034525406e-08
67,-0.0966651463009703,-0.0966651463151947,0.500775287912489,0,0,0,1.35994600301774,7.33427815008403e-11,7.3374300559037e-11,0.0157872315456411,0,0,0,0.00365500456150889,7.15951386909868e-07
67.2,-0.0966651463009703,-0.0966651463151947,0.494696241836107,0,0,0,1.35170390602976,-5.4962971704816e-06,-5.49629713929387e-06,0.0154367259127748,0,0,0,0.00358044959436086,2.36373970167464e-06
67.4,-0.0965610848775369,-0.0965610848916876,0.488580014818671,0,0,0,1.34374144323635,-1.81675100823821e-06,-1.81675097163901e-06,0.015080133202326,0,0,0,0.00350538611182318,5.05079929855387e-06
67.6,-0.0965610848775369,-0.0965610848916876,0.482426149244293,0,0,0,1.33549763070115,-4.29006783423183e-06,-4.29006779966053e-06,0.0147235062181865,0,0,0,0.00343139071464513,8.71931690376729e-06
67.8,-0.0965610848775369,-0.0965610848916876,0.476234178996372,0,0,0,1.32725381816596,-5.19960112400648e-06,-5.19960108810984e-06,0.0143637516669712,0,0,0,0.00335769295354792,1.34358862383675e-05
68,-0.0965610848775369,-0.0965610848916876,0.470003629245735,0,0,0,1.31901000563077,-4.52446039080501e-06,-4.52446035690071e-06,0.0140008277677132,0,0,0,0.00328430463935787,1.92319642316321e-05
68.2,-0.0965610848775369,-0.0965610848916876,0.46373401623214,0,0,0,1.31076619309558,-2.24274639001355e-06,-2.24274635608496e-06,0.0136346907219181,0,0,0,0.00321123802938906,2.61398178254221e-05
68.4,-0.0965610848775369,-0.0965610848916876,0.457424847038875,0,0,0,1.30252238056038,1.66844315904486e-06,1.66844319682714e-06,0.0132652947250226,0,0,0,0.00313850584592059,3.41925685309519e-05
68.6,-0.0966633288355189,-0.0966633288509723,0.451075619360217,0,0,0,1.29401393075494,5.65529142612653e-11,5.65185571954618e-11,0.0128954508898401,0,0,0,0.0030669018796897,4.3278842502211e-05
68.8,-0.0967670931579029,-0.096767093172925,0.444685821261446,0,0,0,1.28550499701407,5.40960809133906e-11,5.40850350616573e-11,0.0125222490608559,0,0,0,0.00299567554501847,5.35454202822751e-05
69,-0.0968967023465223,-0.096896702361807,0.438254930931155,0,0,0,1.27693353282304,7.82624087064532e-11,7.82348959921242e-11,0.012146304593121,0,0,0,0.00292502841938196,6.49856872824541e-05
69.2,-0.0970531020933152,-0.0970531021079273,0.431782416425538,0,0,0,1.26829846679497,1.04954505156241e-10,1.04962643611428e-10,0.0117675705437103,0,0,0,0.00285498494880988,7.7623239311742e-05
69.4,-0.0972372894226743,-0.0972372894371927,0.425267735404344,0,0,0,1.25959867275986,1.32862500515363e-10,1.32877008441473e-10,0.0113859975215078,0,0,0,0.00278557087658972,9.14821683922536e-05
69.6,-0.0974503178959877,-0.0974503179108477,0.418710334858185,0,0,0,1.25083296207852,4.28495884607916e-11,4.28436825947176e-11,0.0110015336310708,0,0,0,0.00271681334199077,0.000106587076751323
69.8,-0.0976932944003588,-0.0976932944157402,0.412109650826833,0,0,0,1.24200009749632,4.95508456314908e-11,4.95077364520702e-11,0.0106141241771299,0,0,0,0.00264874091836698,0.000122963108793539
70,-0.0979673921656736,-0.0979673921820888,0.405465108108164,0,0,0,1.23309876673545,5.53384460651174e-11,5.52303688894362e-11,0.0102237117984479,0,0,0,0.00258138378334925,0.000140635949196673
70.2,-0.0982738486558306,-0.0982738486698744,0.398776119957368,0,0,0,1.22412759462485,5.95160470386047e-11,5.95533253787417e-11,0.00983023618117673,0,0,0,0.0025147737772847,0.000159631852599943
70.4,-0.0986139710541087,-0.0986139710711624,0.392042087776023,0,0,0,1.21508513664544,6.19168275678428e-11,6.17647942340038e-11,0.00943363396958742,0,0,0,0.00244894452760867,0.000179977657951026
70.6,-0.0989891406263492,-0.0989891406409455,0.385262400790645,0,0,0,1.20596987596557,6.15906180223558e-11,6.15955515759214e-11,0.00903383863666375,0,0,0,0.00238393157174312,0.000201700805349873
70.8,-0.0994008173207488,-0.0994008173372534,0.378436435720245,0,0,0,1.19678022043941,5.75271054750748e-11,5.7410390243845e-11,0.00863078035353518,0,0,0,0.00231977249034803,0.000224829352465609
71,-0.0998505446583819,-0.0998505446735929,0.371563556432483,0,0,0,1.18751449966997,4.89908226833369e-11,4.8953874808022e-11,0.00822438585758005,0,0,0,0.00225650705161644,0.000249391990540157
71.2,-0.100339954935943,-0.100339954950005,0.364643113587909,0,0,0,1.17817096196525,3.48755030930847e-11,3.49098879144638e-11,0.00781457832201058,0,0,0,0.00219417736833617,0.000275418059634821
71.4,-0.1008707747417,-0.10087077475529,0.357674444271816,0,0,0,1.16874777137594,1.32731659864549e-11,1.33371512618663e-11,0.00740127722593842,0,0,0,0.00213282806836579,0.00030293756318083
71.6,-0.101444830760993,-0.101444830774648,0.350656871613169,0,0,0,1.15924300486096,-1.62228633304728e-11,-1.61615152684258e-11,0.00698439822558589,0,0,0,0.00207250647974958,0.000331981181737475
71.8,-0.102064056024774,-0.102064056038112,0.343589704390077,0,0,0,1.14965464931048,-5.60806505400802e-11,-5.59978959903396e-11,0.00656385303083629,0,0,0,0.00201326283300903,0.000362580285334656
72,-0.102730496428476,-0.102730496441238,0.336472236621213,0,0,0,1.1399805988985,-1.07934060560727e-10,-1.07812315065098e-10,0.00613954928343455,0,0,0,0.00195515048067508,0.000394766944836828
72.2,-0.103446317715838,-0.103446317732001,0.3293037471426,0,0,0,1.13021865238832,-1.74348245693054e-10,-1.74463554930906e-10,0.00571139044256334,0,0,0,0.00189822613734444,0.000428573941470246
72.4,-0.104213812835476,-0.104213812850495,0.322083499169113,0,0,0,1.12036651071299,-2.58094791415545e-10,-2.5813610125304e-10,0.00527927567610271,0,0,0,0.00184255014124636,0.000464034774677272
72.6,-0.105035409746036,-0.10503540976123,0.314810739840034,0,0,0,1.11042177467155,-3.62125825419807e-10,-3.62187431521971e-10,0.00484309976140721,0,0,0,0.0017881867403085,0.000501183667643274
72.8,-0.105913679692649,-0.10591367970988,0.307484699747961,0,0,0,1.10038194288913,-4.90504767011735e-10,-4.90716009927256e-10,0.0044027529963381,0,0,0,0.00173520440484672,0.000540055570290965
73,-0.106851345933833,-0.106851345950119,0.300104592450338,0,0,0,1.09024441011249,-6.47386736015929e-10,-6.47536587501316e-10,0.00395812112245723,0,0,0,0.00168367616956379,0.000580686159372654
73.2,-0.107851293007994,-0.107851293017755,0.29266961396282,0,0,0,1.08000646576437,-8.38099432085362e-10,-8.37762184060717e-10,0.00350908526428699,0,0,0,0.00163368000849596,0.000623111834911787
73.4,-0.108916576496647,-0.108916576511627,0.285178942233662,0,0,0,1.06966529296501,-1.06818508162007e-09,-1.06823832331931e-09,0.00305552188586872,0,0,0,0.00158529924578024,0.000667369712714515
73.6,-0.11005043335169,-0.110050433367705,0.27763173659828,0,0,0,1.05921796808043,-1.34387144023595e-09,-1.3440079811881e-09,0.00259730276788722,0,0,0,0.00153862300609697,0.000713497612338443
73.8,-0.111256292872089,-0.1112562928816,0.27002713721306,0,0,0,1.0486614605649,-1.6762912697461e-09,-1.67592416192627e-09,0.00213429501259196,0,0,0,0.0014937467104705,0.000761534039057556
74,-0.112537788017261,-0.112537788027934,0.262364264467491,0,0,0,1.03799263404452,-2.07102120554966e-09,-2.07073641773133e-09,0.00166636107095036,0,0,0,0.0014507726183509,0.000811518161049308
74.2,-0.113898767743223,-0.11389876775673,0.254642218373581,0,0,0,1.0272082473398,-2.54227374655441e-09,-2.54222039123078e-09,0.00119335881281785,0,0,0,0.00140981042761063,0.00086348977752759
74.4,-0.115343309535033,-0.115343309546458,0.246860077931525,0,0,0,1.01630495720686,-3.10182144522991e-09,-3.10159421553651e-09,0.000715141626508668,0,0,0,0.00137097793075008,0.000917489280863602
74.6,-0.11687573287634,-0.116875732880795,0.2390169004705,0,0,0,1.00527932147731,-3.76570569088949e-09,-3.76489871877883e-09,0.000231558570599274,0,0,0,0.00133440174055174,0.000973557607960354
74.8,-0.118500613195054,-0.118500613215136,0.231111720963387,0,0,0,0.994127803692972,-4.55184052826536e-09,-4.55231198230436e-09,-0.000257545425873719,0,0,0,0.001300218088026,0.00103173618198536
75,-0.120222796469807,-0.120222796489225,0.22314355131421,0,0,0,0.982846779140476,-5.48127441726181e-09,-5.48170451896259e-09,-0.000752329303919827,0,0,0,0.00126857370182468,0.00109206684246974
75.2,-0.122047414510128,-0.122047414521693,0.215111379616945,0,0,0,0.971432542110538,-6.58051321831936e-09,-6.58027380349459e-09,-0.00125295554224479,0,0,0,0.00123962678002979,0.00115459176107299
75.4,-0.123979900649899,-0.123979900659957,0.207014169384326,0,0,0,0.959881315428013,-7.87695047198538e-09,-7.87657239811109e-09,-0.00175958975180448,0,0,0,0.00121354805974464,0.00121935334378011
75.6,-0.126026006180952,-0.126026006187532,0.198850858745165,0,0,0,0.948189261592264,-9.40621339194994e-09,-9.40551892749872e-09,-0.00227240017483096,0,0,0,0.00119052200017178,0.0012863941149725
75.8,-0.128191817090872,-0.128191817100363,0.19062035960865,0,0,0,0.936352496493176,-1.12103849984413e-08,-1.12099505169974e-08,-0.00279155708347379,0,0,0,0.0011707480873959,0.00135575658338405
76,-0.130483771089299,-0.130483771106151,0.182321556793955,0,0,0,0.924367105978044,-1.33340924963858e-08,-1.33343315330409e-08,-0.00331723206337896,0,0,0,0.0011544422738557,0.00142748308786176
76.2,-0.13290867516798,-0.132908675205514,0.173953307123438,0,0,0,0.912229164826996,-1.58364916065783e-08,-1.58386577870078e-08,-0.00384959715553855,0,0,0,0.0011418385717194,0.001501615617794
76.4,-0.135473722818288,-0.135473722837567,0.165514438477573,0,0,0,0.899934759996292,-1.87844740433003e-08,-1.87849572171311e-08,-0.0043888238571314,0,0,0,0.00113319080650582,0.00157819561095926
76.6,-0.138186511344518,-0.138186511367724,0.157003748809665,0,0,0,0.887480017035338,-2.22552794335723e-08,-2.22561532784056e-08,-0.00493508194139739,0,0,0,0.00112877455720861,0.00165726372089449
76.8,-0.141055058613325,-0.141055058611106,0.148420005118273,0,0,0,0.874861131474431,-2.6341676980738e-08,-2.63400834342627e-08,-0.00548853809177104,0,0,0,0.00112888929225953,0.00173885955612949
77,-0.144087819085167,-0.144087819079692,0.139761942375159,0,0,0,0.862074404610755,-3.11522392252954e-08,-3.11502976104577e-08,-0.00604935431123542,0,0,0,0.0011338607277137,0.00182302138466628
77.2,-0.147293698400861,-0.147293698432719,0.131028262406404,0,0,0,0.849116285511776,-3.68086735388559e-08,-3.68104797012804e-08,-0.00661768609830026,0,0,0,0.0011440434185659,0.00190978580652928
77.4,-0.15068206673465,-0.150682066752951,0.122217632724249,0,0,0,0.835983418216543,-4.34691282825798e-08,-4.34695621677125e-08,-0.00719368033833198,0,0,0,0.00115982361595689,0.00199918738562513
77.6,-0.154262768975676,-0.154262768988235,0.113328685307003,0,0,0,0.822672696809158,-5.13037141753811e-08,-5.13035373996863e-08,-0.00777747291069877,0,0,0,0.00118162239552197,0.00209125824827055
77.8,-0.158046132537317,-0.158046132545329,0.104360015324243,0,0,0,0.809181327059722,-6.05216491493012e-08,-6.05209792147073e-08,-0.00836918595253222,0,0,0,0.00120989909295089,0.00218602763912908
78,-0.162042970548615,-0.162042970559648,0.0953101798043247,0,0,0,0.795506896935631,-7.13634364709476e-08,-7.13630856998861e-08,-0.00896892477388101,0,0,0,0.0012451550531029,0.00228352144237743
78.2,-0.16626458017343,-0.166264580201312,0.0861776962410522,0,0,0,0.781647455596692,-8.41079360546469e-08,-8.41094766361114e-08,-0.0095767743801164,0,0,0,0.00128793771877932,0.00238376166541052
78.4,-0.170722734768895,-0.17072273480081,0.076961041136128,0,0,0,0.767601601533836,-9.90894544979949e-08,-9.90914717662918e-08,-0.0101927955757997,0,0,0,0.0013388450738834,0.00248676588885928
78.6,-0.175429667895883,-0.175429667919274,0.0676586484738151,0,0,0,0.753368581149987,-1.16692953755233e-07,-1.16694013203768e-07,-0.0108170206437946,0,0,0,0.00139853044267009,0.00259254669365053
78.8,-0.180398048341538,-0.180398048358354,0.0582689081239758,0,0,0,0.738948397031229,-1.37368572553868e-07,-1.37368884649269e-07,-0.0114494485687531,0,0,0,0.00146770765879032,0.00270111106903219
79,-0.185640943784027,-0.18564094379813,0.0487901641694318,0,0,0,0.72434192686128,-1.61634104605887e-07,-1.61634108371972e-07,-0.0120900398196513,0,0,0,0.00154715658947591,0.00281245981966827
79.2,-0.191171771655898,-0.191171771649236,0.0392207131532811,0,0,0,0.709551051943946,-1.90085986326305e-07,-1.90083398153573e-07,-0.0127387106923541,0,0,0,0.00163772900600038,0.00292658698556179
79.4,-0.197004085667286,-0.197004085695912,0.029558802241544,0,0,0,0.694579002247171,-2.23397920153141e-07,-2.23399776246545e-07,-0.0133953181637427,0,0,0,0.00174035188759918,0.00304347491432921
79.6,-0.203151754684722,-0.203151754701006,0.0198026272961799,0,0,0,0.679430126056159,-2.62411477095457e-07,-2.62411769804891e-07,-0.0140596698479299,0,0,0,0.0018560385382362,0.00316310139085927
79.8,-0.209628920154644,-0.20962892018979,0.00995033085316809,0,0,0,0.664109980796845,-3.08006405113498e-07,-3.08009228567642e-07,-0.0147315202266167,0,0,0,0.00198589677830206,0.00328544103482443
80,-0.216449570475064,-0.216449570490346,0,0,0,0,0.648625908288919,-3.61229256265819e-07,-3.61229429471886e-07,-0.0154105452037623,0,0,0,0.00213112977627724,0.00341045602037573
